744 65
85 98
1149 29
719 38
74 53
1209 66
716 11
1174 132
1018 53
633 67
247 63
312 110
1070 39
1042 45
470 82
251 38
33 7
878 133
403 98
154 116
324 82
1199 101
1195 113
806 110
1120 71
853 69
744 10
93 72
797 34
1026 85
297 83
201 50
928 41
94 135
148 63
511 69
325 50
590 85
641 22
588 44
886 78
739 43
378 69
541 92
311 131
254 23
1131 61
1214 17
10 90
821 17
284 78
745 47
928 139
39 39
566 76
196 16
267 53
392 92
647 22
395 20
1003 123
1191 67
597 3
821 88
793 25
933 18
1234 26
821 57
130 136
982 47
876 108
1037 57
511 12
527 125
992 17
1068 137
446 42
454 102
189 29
492 137
124 50
1217 132
576 125
926 15
155 45
1072 129
77 16
673 6
1049 120
766 136
682 37
996 84
1135 30
92 86
60 57
679 58
168 77
774 105
889 20
256 83
864 104
993 30
488 91
271 10
728 99
55 44
573 109
172 62
708 91
346 116
11 52
1010 135
1027 132
548 64
1052 85
1198 25
61 53
167 120
421 92
878 37
14 42
1069 133
511 84
1240 67
246 37
981 127
131 12
556 46
538 51
994 51
54 130
264 55
159 109
981 16
227 107
695 20
123 23
634 9
1009 51
1147 84
996 125
981 76
720 34
1200 66
778 108
1043 0
1133 59
578 137
906 120
181 96
337 107
1095 5
412 97
636 107
713 62
827 52
390 53
469 97
671 104
275 116
600 22
1098 128
302 97
637 126
1012 24
409 128
478 128
672 21
150 13
377 98
89 89
1065 62
1014 35
853 118
188 41
626 30
1013 131
1225 108
783 90
785 91
543 30
1231 109
573 66
1129 2
672 110
808 43
970 26
71 135
239 45
117 17
1087 10
227 51
199 21
480 105
644 3
257 55
1157 83
206 90
1055 25
505 37
339 43
1028 89
961 56
1248 132
938 64
73 19
687 56
590 43
997 17
729 125
454 17
980 37
348 66
853 77
419 123
948 89
713 22
639 131
755 26
506 105
981 101
1148 50
367 72
113 46
19 49
891 85
1015 84
670 77
243 5
77 131
870 129
71 43
1117 72
701 9
39 41
745 34
664 120
560 55
621 85
1207 41
103 133
1020 104
340 126
1212 106
415 29
458 51
99 21
1143 98
218 7
1112 41
270 105
186 19
387 63
230 51
218 83
1240 111
1118 26
294 97
1010 86
1097 136
830 64
833 69
977 22
236 130
1034 90
811 19
842 134
783 56
49 120
978 72
448 83
670 63
1222 105
306 83
510 97
483 100
929 23
862 5
803 53
1031 93
401 55
848 51
478 15
587 130
707 39
247 111
569 87
635 107
117 7
370 22
971 58
283 96
1190 84
507 126
269 83
890 17
601 113
34 127
1200 0
890 35
696 64
1177 29
276 53
947 104
501 107
1005 105
416 92
1096 18
423 130
928 55
542 65
688 5
634 0
132 12
674 88
539 30
257 29
131 111
698 5
1091 116
374 45
123 76
365 56
615 91
447 25
252 96
731 107
820 87
315 22
1039 36
947 116
1126 23
1096 106
695 97
1007 6
339 22
456 51
1082 130
972 67
746 118
1054 19
1046 137
434 89
1080 67
1178 42
983 103
472 125
1136 113
708 35
1046 43
736 103
875 56
1091 100
1180 101
40 29
1160 52
465 89
30 25
572 96
381 18
369 38
250 90
243 107
623 132
484 59
614 103
469 77
515 126
490 66
270 30
257 77
60 91
447 128
84 41
923 63
766 57
439 36
495 83
142 130
303 2
855 116
162 128
1092 0
999 40
290 125
214 22
58 129
318 92
1243 5
720 57
766 2
858 51
995 6
1154 89
842 125
327 61
1017 126
619 22
669 33
881 71
1226 87
676 11
1201 101
1037 44
504 50
862 22
846 129
903 52
425 50
246 12
1062 38
540 59
899 41
1106 66
247 131
952 126
450 58
87 96
988 106
1002 62
407 88
513 110
994 29
689 100
1193 107
483 86
1155 6
301 76
75 59
1062 18
274 96
252 126
70 132
1 104
838 40
270 103
334 36
321 26
765 139
1138 93
880 59
17 42
33 43
390 41
723 12
563 76
384 127
838 64
1232 5
1205 108
671 38
931 23
828 39
52 2
97 113
1240 6
630 72
662 40
976 16
1136 37
935 71
1024 15
60 125
265 9
90 7
399 53
781 67
1066 92
399 42
782 35
1205 52
702 90
746 127
702 89
940 56
1145 93
1129 42
899 5
186 25
1099 9
702 5
46 61
1162 86
44 53
173 57
1207 15
963 36
1016 39
880 56
417 64
679 42
619 70
295 128
1189 57
287 137
1141 134
1174 24
1011 88
813 24
815 67
1194 139
269 100
1193 26
350 99
1051 67
479 61
150 111
790 34
1037 50
35 20
174 88
917 66
0 101
301 34
158 12
555 53
244 85
453 109
972 123
58 100
89 9
1036 109
890 110
1150 39
15 120
131 21
1164 42
14 128
305 133
1122 64
834 96
290 18
285 91
1016 71
303 77
774 96
1087 135
644 35
845 29
379 57
138 128
851 130
435 62
30 21
624 26
51 61
524 66
1011 111
675 63
225 113
785 72
359 69
1116 35
840 57
834 12
828 87
489 89
1026 59
1200 26
11 6
1031 106
491 23
768 50
392 10
511 104
437 82
1045 87
855 57
58 17
444 44
481 57
98 25
1143 58
921 9
623 5
449 103
1046 120
811 5
65 111
626 113
623 93
431 39
622 84
543 47
386 41
901 129
834 88
976 38
227 29
631 40
222 30
1211 58
1100 46
1225 101
870 118
50 123
848 90
186 116
956 64
921 37
334 100
602 78
14 62
945 128
726 25
433 29
222 17
1205 55
265 77
192 90
312 111
1024 77
389 96
705 97
1045 89
216 77
1050 70
641 3
3 66
519 37
1223 87
866 51
1077 30
668 96
234 136
128 70
875 53
173 120
615 99
495 56
66 83
152 72
708 135
232 44
798 26
892 64
834 57
679 6
650 52
337 91
21 52
1226 13
665 102
397 96
555 71
918 110
266 118
1161 2
6 82
275 41
957 45
303 33
630 76
625 65
190 40
711 91
266 5
256 101
959 76
1149 83
898 34
1001 58
407 7
256 131
683 24
145 125
786 92
763 131
976 42
374 3
156 41
296 66
784 18
755 135
697 17
930 33
813 102
875 78
951 5
945 29
274 45
178 59
450 16
1031 105
623 83
904 100
839 118
690 22
570 64
618 107
30 23
487 105
770 102
447 110
839 136
153 133
414 91
324 123
719 137
494 52
357 126
697 98
282 56
379 88
818 38
596 2
578 66
987 92
921 29
471 67
1003 19
109 20
173 104
478 137
823 92
920 39
985 42
960 55
816 136
222 67
450 89
112 57
811 76
309 36
978 134
181 26
577 116
899 50
733 86
525 39
80 131
888 37
703 72
841 89
651 22
748 113
990 44
726 39
874 105
486 55
1021 88
360 92
931 106
224 127
1243 20
628 88
983 123
994 109
8 34
1222 129
81 33
103 53
515 33
313 18
536 130
765 97
799 98
944 139
1147 92
1127 59
90 133
353 23
781 102
208 57
1057 104
944 5
856 87
494 100
309 65
480 126
698 66
99 87
139 139
829 77
621 89
1169 100
1205 66
172 61
614 41
216 85
696 38
295 50
407 67
576 57
446 6
892 38
963 101
183 16
735 82
211 35
1196 132
742 62
718 108
692 132
69 43
1190 45
44 108
198 72
313 46
938 59
1080 83
488 9
574 100
466 65
1059 72
41 136
441 40
813 136
174 47
596 139
575 65
290 101
770 52
539 46
1166 12
252 137
307 106
42 109
610 49
294 70
1041 61
55 69
652 100
557 41
88 111
752 72
23 110
487 127
20 97
1056 57
685 40
981 55
146 69
1238 98
622 135
692 130
606 56
384 104
578 129
392 91
970 110
387 44
565 35
100 127
952 82
984 93
1150 24
1034 22
642 116
1147 71
509 105
1102 125
176 85
696 30
328 78
1198 137
526 78
888 6
410 52
1031 83
614 30
44 13
134 66
317 126
878 123
510 6
810 50
188 50
949 128
598 98
546 135
1236 57
1206 105
248 45
25 90
330 24
299 126
510 25
1035 107
686 133
245 107
918 59
1054 88
594 90
585 134
738 103
949 90
868 35
1164 89
262 0
665 40
196 101
544 109
863 38
241 106
1055 53
842 65
312 105
1088 135
995 66
1117 118
1141 62
14 127
442 120
221 57
981 109
4 76
968 77
940 35
588 50
860 29
827 33
1105 11
871 108
219 98
678 13
1169 18
299 19
956 65
902 96
288 22
180 89
1211 43
491 116
504 135
691 139
195 99
709 69
293 59
446 109
666 3
1151 103
384 62
1009 78
536 29
780 107
611 56
4 43
726 62
1133 55
852 35
33 16
242 90
87 125
271 7
1179 7
975 7
935 6
247 133
167 139
568 132
365 98
231 16
411 100
277 110
1031 53
759 52
76 0
384 59
123 53
187 96
1008 33
573 3
307 82
175 123
847 13
193 26
516 134
958 102
37 61
1243 2
33 66
228 36
997 55
889 78
856 37
977 62
708 58
900 88
512 6
610 129
1124 133
1020 78
1122 21
655 133
758 87
1185 53
225 16
558 13
612 128
1187 116
384 34
52 34
298 37
7 85
188 39
594 100
165 77
1161 133
799 55
115 139
226 0
493 47
1194 61
821 45
208 15
1023 65
754 96
854 128
86 72
1029 99
1003 39
725 69
864 38
667 85
270 123
191 125
739 33
514 126
1001 22
237 85
386 56
619 44
472 136
876 84
38 77
795 45
425 67
744 100
609 6
484 84
318 131
587 0
588 90
1022 88
159 65
883 16
683 107
24 65
326 39
279 51
495 105
1107 52
1137 126
205 3
1129 69
916 100
74 88
120 137
867 109
593 43
1115 130
812 45
147 78
134 56
567 128
1228 29
798 0
574 109
1025 53
735 120
452 118
904 104
658 17
118 136
423 23
90 86
534 42
762 7
947 110
665 90
876 45
940 34
575 53
1196 45
966 126
469 44
766 116
1042 41
882 137
1225 26
100 92
75 36
297 26
202 92
983 43
997 18
720 71
749 134
1145 52
38 103
594 12
629 90
551 86
717 85
720 127
965 53
98 44
1144 86
721 25
996 26
965 109
165 88
429 36
795 123
61 3
973 78
1163 135
1249 91
445 108
752 99
233 11
631 83
68 7
762 132
246 50
859 134
662 100
758 42
320 29
498 90
665 11
781 69
965 37
140 67
366 116
743 36
873 103
534 17
861 83
1119 42
6 105
1224 77
486 91
937 77
509 37
444 46
1040 38
835 106
667 2
193 107
1144 77
888 61
822 89
758 76
69 39
599 104
472 129
462 25
611 3
2 105
865 40
1091 50
848 57
611 34
166 18
525 7
0 62
890 26
403 40
177 100
493 69
454 84
977 45
103 84
866 130
439 18
162 9
269 98
603 133
306 128
1077 33
438 116
635 106
393 71
476 62
964 0
566 62
806 38
1179 123
611 55
22 57
155 6
908 35
288 70
543 101
330 64
981 40
336 123
919 85
668 34
313 0
939 47
745 71
1193 123
725 34
731 66
1077 120
1235 96
839 24
425 132
731 137
578 126
1053 133
201 19
1125 85
229 25
81 109
1 128
1080 97
1239 33
461 25
474 36
649 62
950 125
373 46
49 5
903 67
373 56
692 101
450 18
1018 5
781 113
509 123
208 38
407 20
326 107
737 102
167 29
400 106
80 29
868 39
701 93
318 85
975 15
757 49
942 7
1124 86
371 134
692 25
966 134
732 86
27 103
1122 0
717 30
1144 103
749 44
328 102
585 21
983 49
1236 120
220 45
238 17
1003 120
801 90
9 34
660 56
687 43
1115 10
15 126
761 113
674 15
656 44
1109 36
57 97
1222 5
349 76
1200 131
532 62
1077 72
361 0
766 86
340 55
1058 0
130 13
1184 10
645 83
820 2
743 83
657 9
1128 47
900 26
828 107
673 63
398 21
709 37
287 104
213 92
51 123
601 125
1147 11
57 113
614 118
967 76
513 130
240 7
557 133
187 111
303 64
1050 30
830 45
66 13
1006 64
838 126
901 5
941 6
697 7
35 44
540 98
650 88
1187 6
399 47
722 133
583 21
396 50
432 92
372 77
1058 17
526 42
470 136
436 103
461 34
309 57
282 130
1158 3
243 30
133 109
1201 131
1060 40
24 96
637 43
773 11
54 109
38 127
1120 93
1240 100
799 91
546 13
1119 76
916 132
153 39
932 22
434 99
435 96
1085 110
806 98
984 85
779 3
1 100
209 70
94 57
631 127
1008 40
811 105
1120 137
134 104
120 111
75 9
226 82
180 111
316 109
1150 106
592 51
328 96
702 113
227 78
334 37
1037 65
1057 9
475 97
517 70
104 58
21 45
364 99
83 63
994 16
643 24
627 63
1037 133
1001 77
516 123
275 45
187 99
905 3
1120 23
15 70
3 84
706 106
738 87
845 82
582 43
313 6
435 24
352 30
692 116
532 86
536 96
239 55
1173 125
1234 92
736 77
217 34
224 64
916 40
451 21
309 77
891 106
1073 87
733 123
577 37
187 62
780 113
1170 72
1046 16
561 137
319 101
293 78
305 86
1154 107
1185 104
920 15
667 20
69 98
421 109
632 50
28 57
561 82
436 78
644 86
839 9
681 26
723 58
746 16
25 49
501 64
487 123
499 101
716 103
987 34
1143 12
224 37
469 52
1161 82
159 55
551 7
1052 123
1188 92
843 111
520 9
127 62
218 120
507 44
1053 86
1232 65
1219 50
215 41
708 136
1060 20
512 136
265 84
763 51
1201 129
804 113
609 132
298 44
1032 18
16 71
750 35
766 107
592 92
676 7
1133 85
808 100
150 88
564 133
412 52
831 104
640 86
1018 65
560 43
862 3
11 126
316 76
5 127
25 43
444 17
14 132
653 53
764 46
682 45
938 38
283 15
156 15
717 130
870 104
1066 45
933 50
981 29
862 18
449 90
947 0
1069 77
163 9
625 9
1161 125
993 72
124 108
1014 91
937 53
673 35
208 109
807 58
1115 128
791 105
233 110
324 98
989 128
382 137
629 109
151 92
1067 61
96 77
678 61
202 135
1203 45
562 15
583 97
959 90
1246 44
186 103
901 90
1082 7
858 5
1150 65
395 125
606 107
214 29
1217 2
792 62
238 130
146 30
1085 134
932 83
1218 25
336 43
1207 108
699 55
164 128
9 82
750 51
633 61
1090 102
414 41
470 116
772 19
169 50
506 133
185 2
584 30
1069 67
412 93
35 40
923 17
60 98
30 76
655 129
474 92
534 6
532 132
818 139
399 100
638 26
901 83
409 25
799 104
682 11
684 90
1208 63
419 64
600 26
526 19
731 85
407 77
218 43
882 103
936 107
1212 44
66 97
66 35
1202 45
265 125
350 107
335 72
741 45
566 78
379 134
499 45
63 35
640 109
69 24
699 26
577 126
779 96
1210 100
289 5
399 88
591 35
318 61
1168 3
21 11
1225 111
73 89
1240 113
784 62
1023 82
961 107
858 58
202 45
612 12
717 5
469 106
43 78
1221 113
670 101
333 103
615 78
379 21
627 88
209 96
358 71
606 97
899 113
709 131
149 102
9 93
242 64
669 59
1164 65
537 137
602 53
514 98
187 85
966 11
971 127
188 111
1111 70
27 65
301 108
20 18
637 40
143 56
703 134
812 11
497 132
606 133
316 90
323 63
1010 84
447 24
865 66
711 102
697 21
532 63
400 137
756 85
522 29
707 25
672 76
1135 23
1075 134
676 86
1190 98
631 77
296 72
360 118
496 36
451 97
190 125
1134 127
404 20
1085 20
237 97
1028 36
370 40
454 67
175 125
494 34
820 21
737 10
1019 136
1099 7
310 105
351 110
992 125
655 52
534 78
412 47
867 105
31 78
747 127
562 134
916 72
966 34
562 120
687 49
1019 105
357 22
856 3
63 44
708 40
170 45
91 133
878 52
1188 128
892 39
542 110
266 108
1191 90
191 92
314 106
574 103
1041 137
693 108
143 30
571 131
1044 65
99 0
613 113
527 135
753 92
270 47
902 57
896 51
340 38
740 77
918 111
827 37
813 34
735 127
97 110
24 106
151 132
606 42
827 99
148 57
279 47
1014 21
421 3
344 24
1229 100
915 24
426 72
941 101
657 134
934 7
1247 123
667 42
712 113
562 66
1226 136
410 97
775 131
1040 132
85 55
671 46
113 25
646 36
1244 23
25 30
835 45
639 64
54 61
366 127
797 91
481 42
964 105
536 47
242 13
293 40
1161 24
919 104
114 120
1015 127
683 120
117 90
874 102
307 5
1129 82
398 86
149 104
697 86
950 52
627 10
734 0
1202 126
11 113
396 87
264 128
1203 59
1191 89
487 110
1060 132
1088 110
626 56
255 21
91 25
1218 133
184 104
513 39
1083 19
540 87
56 135
1215 92
769 39
897 40
38 50
962 24
611 99
196 126
455 42
991 51
1073 20
350 135
1042 113
372 61
519 118
640 108
1093 42
985 113
717 15
599 43
1120 40
1117 139
894 5
32 40
480 26
333 23
203 40
907 45
754 83
1143 113
212 43
1173 39
300 89
931 44
1154 24
148 129
309 76
1146 137
624 53
810 93
229 126
256 22
830 76
694 104
280 26
92 30
1209 106
333 76
805 116
1251 82
41 83
236 36
496 49
635 17
402 21
549 51
929 67
1014 6
402 128
373 128
174 59
474 17
137 71
43 132
430 128
1182 15
561 66
971 102
1052 97
397 129
245 63
39 34
1157 91
712 20
87 13
381 50
991 35
669 96
557 93
784 128
735 139
1220 52
410 7
750 52
671 61
746 120
470 59
47 69
987 137
301 86
1142 0
1083 0
645 108
263 47
360 3
682 21
797 123
974 13
1033 110
163 63
1098 108
875 58
91 87
54 118
222 0
506 110
197 104
856 96
100 101
1108 33
940 10
921 127
950 89
1193 92
623 100
620 63
237 118
91 26
385 107
47 35
1170 13
1016 56
418 85
380 10
686 69
603 37
776 76
522 69
504 15
697 64
616 0
420 108
125 129
277 107
95 33
262 41
580 113
1237 35
243 132
48 35
329 49
1175 86
87 12
370 104
83 33
603 101
809 93
1163 65
459 16
837 102
804 49
276 102
1199 92
841 88
886 113
113 56
434 6
723 13
191 139
1014 56
558 126
496 123
814 45
365 84
135 93
333 126
133 12
1198 110
1207 136
1035 123
990 63
698 99
107 17
985 127
900 0
970 125
379 71
82 139
629 13
930 101
1235 34
1066 116
65 136
798 100
608 59
576 108
387 19
965 85
532 35
1049 70
185 24
622 18
174 38
506 89
1133 44
933 137
1145 45
468 99
1192 42
787 17
682 62
1113 134
373 35
468 89
221 20
637 103
369 132
297 102
547 66
1180 56
1047 98
1231 92
699 139
694 65
850 69
807 45
174 116
677 109
1121 67
355 10
91 127
222 2
1079 134
1163 96
643 137
761 16
568 20
1156 63
892 98
340 105
66 130
1118 99
901 136
6 96
106 12
128 59
524 21
1100 88
1112 51
836 37
930 46
465 87
1205 105
553 89
1139 98
1217 11
1152 30
1111 118
80 16
697 36
365 105
820 71
305 45
1041 42
1173 116
912 5
333 71
357 88
1171 101
304 44
165 131
682 41
505 84
117 13
269 0
1238 72
655 24
1081 125
93 139
848 58
6 83
1183 39
1046 78
560 47
111 126
1247 82
935 102
1061 130
306 99
566 57
1136 135
750 105
427 116
233 12
270 26
901 139
0 42
958 96
19 29
567 125
379 62
259 89
763 64
117 29
369 77
649 3
1247 58
541 110
941 38
744 86
1003 36
763 126
1112 35
444 40
990 86
61 72
347 100
964 38
437 139
483 83
598 128
1224 12
298 47
215 86
228 111
86 86
393 70
375 38
463 90
27 0
500 91
692 35
532 89
1139 52
315 78
297 19
555 127
916 5
415 128
331 99
1100 52
205 132
127 66
1234 12
187 51
53 34
430 52
61 78
603 56
1228 26
354 58
651 139
505 71
133 107
380 78
825 56
462 56
65 29
683 47
165 10
576 131
961 51
852 13
702 97
10 46
237 42
1215 29
126 139
510 63
271 5
620 15
401 23
871 113
508 133
1172 26
142 82
1174 42
324 108
265 83
470 42
971 139
358 99
512 29
562 41
208 82
835 93
566 65
303 91
959 12
213 98
252 135
1003 64
1066 90
740 65
232 37
689 106
264 111
1059 131
921 53
1233 12
91 10
650 69
479 66
71 78
927 109
92 120
1112 93
323 23
810 129
53 64
947 98
674 47
118 13
531 42
34 125
188 0
137 86
158 55
711 49
805 120
344 132
106 126
1053 2
847 125
238 51
132 113
528 19
70 41
1066 133
449 2
1158 9
355 78
82 77
71 18
52 20
482 16
1123 110
180 96
624 127
1069 53
1054 90
436 11
983 59
1122 127
66 99
554 40
1004 43
1181 84
833 130
54 35
1145 41
155 86
313 42
1138 56
936 137
432 35
715 113
156 89
316 25
922 12
881 103
117 132
1231 132
647 85
877 63
386 101
1129 89
1166 24
1107 57
430 39
922 36
744 62
630 107
206 47
1213 107
143 62
187 18
1024 37
81 17
217 135
133 18
996 38
1201 87
281 63
588 83
835 110
11 97
536 85
1003 84
883 0
302 56
371 102
1209 12
332 111
1175 92
991 11
1 44
1233 118
1246 58
581 30
1130 63
773 5
567 30
753 53
361 132
823 134
311 116
488 0
831 62
991 59
969 36
512 22
111 30
1068 63
726 134
418 63
642 45
150 10
992 65
523 111
273 132
1211 137
469 50
515 104
1047 17
240 126
1021 103
147 85
640 44
323 129
217 87
856 98
232 39
1199 109
536 108
431 86
238 33
759 40
454 38
433 51
807 137
580 87
67 77
275 78
901 0
285 69
166 19
994 83
1037 102
65 40
48 70
23 88
709 71
318 78
919 128
119 6
523 82
1106 86
1034 113
9 9
585 131
818 120
870 63
254 50
754 2
1025 108
201 84
1210 43
396 96
1221 103
908 120
1116 113
614 7
989 97
1023 97
1082 65
656 96
834 111
169 96
742 84
1091 104
921 128
771 109
786 134
444 50
1239 97
752 131
84 5
768 19
1161 113
1158 5
460 45
960 30
264 25
1240 104
515 137
284 90
918 92
445 130
280 87
1246 66
984 45
429 16
703 66
897 35
157 43
227 84
919 101
916 46
951 127
667 83
523 87
1166 16
1 78
232 2
84 100
46 93
685 69
739 76
734 130
810 22
1134 85
1154 57
546 42
123 12
658 63
372 0
1211 40
580 46
1214 101
147 56
1146 61
666 77
19 113
1034 76
328 90
97 46
855 11
210 77
1109 108
641 17
535 63
379 101
613 83
631 89
29 57
1199 87
281 22
1141 63
281 70
175 61
4 129
1046 139
478 133
728 25
482 134
1180 103
446 16
388 6
114 133
1031 88
766 45
397 18
960 52
925 87
110 22
1071 70
41 65
858 92
967 19
153 111
842 41
649 85
399 102
632 23
645 78
222 91
968 38
817 128
136 102
501 13
742 104
25 135
130 26
1149 19
143 15
1204 39
1044 92
1185 136
33 116
259 127
1249 131
179 63
114 107
216 90
702 92
171 13
268 85
181 116
706 63
432 12
21 109
384 23
471 76
106 56
637 104
767 107
1208 9
381 113
1030 2
877 66
423 47
347 3
866 116
1065 70
1150 82
1156 34
866 102
604 96
325 25
1061 49
561 62
43 102
1013 99
154 98
1196 127
1226 98
481 72
146 97
957 11
744 20
22 61
1008 11
450 72
1116 136
382 99
321 132
242 77
774 86
302 109
703 86
318 132
258 88
225 55
733 87
134 118
165 137
1043 42
1236 77
998 44
550 66
735 70
485 85
236 91
412 126
88 6
226 64
1186 139
1197 51
918 33
297 134
25 113
664 20
1003 105
115 123
1157 18
3 33
862 40
579 78
245 36
545 12
208 110
1182 62
945 2
464 92
628 55
988 77
970 41
298 26
1083 113
700 91
385 110
238 23
574 41
73 123
685 99
1202 120
1225 113
583 87
1106 131
242 57
546 111
433 38
459 82
587 5
652 64
946 78
604 107
645 84
154 103
20 17
702 103
236 111
986 127
768 83
216 86
998 66
511 44
1086 97
823 136
191 105
726 38
659 108
213 101
702 40
262 16
159 131
579 137
578 20
430 53
955 127
1162 5
574 88
890 123
435 102
714 62
1235 26
196 65
546 109
896 66
973 13
601 72
996 129
300 50
960 24
695 16
630 131
230 55
1179 11
1151 45
988 116
332 78
243 53
1067 20
442 62
704 29
508 87
144 34
9 108
90 9
1237 101
663 33
609 49
929 47
1164 15
1218 110
717 71
429 6
171 33
1162 137
481 67
1168 127
1099 136
888 92
332 101
672 19
223 18
1110 16
1164 69
394 90
1128 55
210 139
998 20
43 98
378 90
1155 132
557 46
1057 123
830 71
722 134
852 3
524 58
1220 69
750 108
553 99
28 82
1135 96
904 87
228 17
1222 66
967 89
491 70
271 129
156 97
1202 78
276 97
787 77
122 5
603 123
480 108
553 134
927 83
1145 71
731 6
366 77
623 90
295 12
491 58
1177 36
277 104
248 99
620 116
905 91
1184 137
405 110
371 52
405 137
594 36
987 98
754 12
126 0
733 116
340 15
550 46
315 25
79 99
202 64
763 13
460 26
410 5
914 86
263 137
909 70
731 33
714 39
592 10
127 133
67 128
1008 135
648 29
706 100
460 0
175 96
367 107
369 19
46 49
626 5
955 13
762 76
61 88
550 103
690 44
471 18
70 109
1017 47
1014 40
880 85
30 120
666 30
1030 83
502 46
771 116
1223 43
1169 96
686 13
621 41
347 69
549 18
302 46
380 101
1044 108
2 47
324 111
190 37
619 111
537 25
784 77
700 9
772 118
765 113
821 16
820 50
91 77
1103 29
702 57
1211 99
1126 96
365 135
542 58
757 30
410 102
759 129
1141 30
997 113
980 107
450 78
493 86
337 103
161 25
865 45
585 83
806 105
866 123
292 101
415 47
227 55
280 34
451 29
1151 108
66 90
984 139
1251 108
1232 102
298 129
1139 30
247 40
894 85
452 46
28 86
1083 76
894 37
1237 18
974 91
384 90
563 36
771 62
356 71
609 76
1074 77
579 83
735 113
586 90
761 62
676 65
360 129
303 135
164 123
1166 70
929 134
144 17
1155 3
642 82
984 61
992 77
1195 19
777 45
78 24
1190 93
500 77
263 12
17 78
951 106
308 26
455 58
553 55
1240 129
88 47
898 98
742 76
198 33
157 45
157 97
1042 82
1196 57
1019 53
88 78
1114 30
266 86
953 13
384 38
3 105
985 63
607 50
346 49
696 58
1023 59
855 43
1151 84
333 34
457 40
20 64
230 38
489 16
647 63
848 111
519 38
712 7
37 70
1045 85
183 52
902 139
959 116
116 98
160 17
468 76
421 59
812 50
197 102
7 36
1087 120
642 44
1236 58
1119 89
337 69
109 69
1162 15
14 87
677 86
198 16
924 88
746 133
345 61
1032 72
1156 101
1175 108
592 6
736 30
903 34
531 65
520 26
143 91
485 26
594 29
662 55
615 106
599 46
1067 105
543 108
838 62
1161 132
166 106
1151 88
531 38
410 39
1121 90
410 104
648 34
426 70
984 56
1215 133
516 71
16 19
952 16
95 123
172 51
546 88
66 101
806 58
1247 96
155 110
597 85
1041 91
685 35
1016 26
329 2
1031 66
570 41
634 107
1214 96
73 33
125 89
1251 71
399 5
261 69
242 82
378 61
686 128
430 50
1086 11
334 97
143 29
582 21
1157 59
828 133
55 22
403 137
1087 39
548 12
646 25
572 70
839 125
180 15
158 86
341 36
625 61
470 33
217 116
310 42
25 83
288 111
573 99
558 47
202 102
883 85
1205 87
1062 41
343 17
423 96
1072 2
1029 50
333 82
457 51
955 53
641 88
843 45
1097 123
576 12
1035 66
573 88
682 38
774 19
862 72
202 136
731 45
1225 126
708 105
403 55
1099 6
583 17
133 62
814 53
1092 49
49 127
607 26
244 91
1027 130
815 5
790 111
1075 5
940 30
1014 116
1234 25
832 20
504 10
1065 38
1032 120
1186 64
345 123
226 76
507 37
393 78
701 42
1039 109
324 97
172 50
382 51
22 89
972 16
910 62
367 100
1154 66
740 26
935 118
634 6
985 123
926 47
98 37
329 51
998 104
780 90
618 90
451 56
914 99
329 105
767 71
522 123
635 77
705 58
102 92
776 106
464 85
1218 92
36 12
819 25
978 37
202 2
578 18
521 96
610 104
1194 33
382 71
897 17
221 47
644 103
135 26
1036 41
1039 39
1168 19
426 127
454 125
62 57
1144 34
186 41
155 105
1226 132
440 70
772 96
1149 109
1130 92
1046 29
189 9
1181 0
665 5
22 34
1115 120
929 86
506 126
690 104
650 24
1212 42
504 129
604 2
128 91
529 58
140 139
1092 123
469 55
254 78
1123 13
1243 36
175 131
234 120
305 111
135 103
930 36
297 103
99 71
731 103
812 5
96 17
1059 78
1053 9
1050 42
672 45
12 56
341 132
548 137
468 49
373 53
1150 62
1198 67
912 41
1238 85
705 67
1076 130
1098 82
240 125
357 41
84 135
792 77
1213 5
766 59
16 57
1095 64
684 131
61 102
837 103
361 131
93 126
678 19
978 82
507 129
1194 132
399 96
439 131
667 56
377 9
1099 139
642 100
490 133
99 139
1048 23
287 57
529 43
205 136
546 5
1023 110
480 61
185 106
114 126
290 33
575 35
552 52
998 130
1215 63
760 82
847 39
177 53
733 61
684 58
100 34
180 36
96 87
166 17
664 123
1169 65
992 78
536 116
1184 19
993 70
572 0
369 86
646 89
1090 69
267 82
328 58
482 66
1072 86
1052 84
806 71
1192 108
980 110
303 96
879 34
79 29
25 106
744 46
918 108
891 127
1128 18
757 51
418 139
624 103
180 44
28 58
753 38
734 22
370 17
819 19
555 64
295 55
688 126
877 17
171 53
77 126
1247 33
859 46
1250 45
28 98
667 133
1044 58
982 106
678 105
1126 19
968 103
810 56
85 25
534 24
897 45
1002 84
751 65
789 25
338 128
526 93
648 50
1197 47
159 63
927 97
529 134
604 78
588 20
91 136
1197 65
959 82
1136 71
82 93
11 69
853 51
136 38
1218 104
19 134
521 101
833 43
1207 66
94 20
556 19
235 41
698 82
766 123
385 57
1018 133
351 5
656 108
939 129
1087 51
512 59
640 102
992 29
100 25
246 111
1137 35
605 2
454 103
401 105
689 130
264 30
553 86
174 49
51 45
1088 23
819 58
15 96
628 34
335 41
185 67
1008 126
248 57
1234 87
759 24
183 17
110 88
396 33
524 22
619 51
978 58
733 88
681 116
481 108
1208 129
437 71
326 104
632 136
1041 52
1212 62
1126 132
1241 132
464 58
593 93
672 2
854 82
696 23
720 30
254 135
135 51
140 89
656 71
959 131
28 89
951 86
1082 9
653 83
135 86
257 71
396 37
1229 107
829 86
245 43
898 125
995 127
103 105
1046 87
130 45
510 123
21 111
693 67
493 37
428 104
475 42
270 120
915 7
91 91
220 44
273 97
483 71
1144 93
537 126
1079 58
911 65
77 110
1080 102
704 125
101 88
759 99
570 55
998 91
1183 99
440 108
305 38
1149 63
351 34
998 100
444 33
410 30
89 63
884 131
1005 116
1079 135
1198 77
130 64
848 50
845 123
1006 111
16 25
641 46
540 84
45 29
545 90
270 16
475 116
100 56
235 113
215 19
672 5
8 38
481 56
1053 59
250 110
1070 135
40 51
973 100
412 50
999 49
324 66
57 99
179 135
774 69
280 5
879 107
1016 96
248 110
348 99
301 57
972 23
362 116
295 23
129 78
892 59
530 98
246 107
1160 71
299 125
268 89
919 102
207 57
178 3
948 101
923 30
727 33
799 65
733 7
812 84
589 107
328 63
795 57
614 88
178 86
223 99
126 44
255 41
299 0
895 0
564 101
90 39
1199 77
1034 93
284 65
1090 17
835 12
670 21
948 61
964 76
848 91
567 25
983 96
921 72
734 128
279 103
609 37
1205 70
918 116
732 50
1099 92
1111 42
600 93
1157 130
1107 123
517 13
910 0
934 66
240 64
258 20
678 100
1082 25
119 72
903 110
881 19
517 131
967 101
1100 38
571 22
1077 69
695 3
283 102
507 98
791 43
751 51
275 62
92 46
891 131
867 104
603 58
291 129
60 7
952 52
765 96
110 78
450 20
1051 19
196 89
189 135
558 10
943 62
592 97
1191 36
390 19
649 38
541 58
99 63
544 92
284 132
518 67
436 37
1055 71
51 62
680 10
891 101
446 127
405 6
375 6
112 91
113 96
294 133
411 9
149 29
992 11
149 98
500 98
319 16
318 134
1057 23
941 66
404 96
1040 96
151 130
489 127
1217 56
1181 51
23 26
616 35
861 98
717 42
251 64
872 128
331 98
1019 5
458 125
1160 109
319 92
551 18
1183 131
128 12
552 132
1039 41
1209 92
182 139
52 120
188 106
1215 86
755 56
1072 6
741 16
448 78
834 139
746 65
789 55
873 47
220 23
413 137
42 9
1043 93
387 35
43 92
565 72
1179 66
1215 96
465 9
118 41
839 137
334 20
381 52
686 50
315 43
343 5
708 42
330 87
736 29
927 82
174 125
1179 102
700 23
512 100
86 133
158 46
197 135
286 83
227 135
1165 129
369 39
593 109
132 33
1211 85
499 118
869 86
626 134
129 133
53 38
571 134
617 78
1220 136
334 127
979 88
962 50
983 91
897 18
1036 26
769 59
853 0
474 21
34 76
280 102
23 136
233 24
1036 15
926 107
884 123
757 43
879 6
467 29
622 89
937 57
615 62
429 131
1119 16
219 71
86 106
670 12
518 89
916 92
923 15
1066 58
1178 139
455 118
1052 30
1168 55
873 87
1186 13
806 136
280 135
971 36
360 66
1000 120
286 65
93 40
768 72
894 99
84 9
400 9
242 39
644 97
561 98
920 125
927 13
556 17
504 123
1060 56
1050 82
1173 15
155 84
870 96
135 63
1228 5
415 6
617 96
1127 129
616 26
80 137
827 135
0 49
198 130
148 118
308 23
1223 12
607 104
453 78
872 116
72 134
605 53
216 93
334 102
58 47
86 30
369 136
960 38
1216 44
145 88
1100 55
420 93
334 133
984 19
365 34
570 111
1038 64
964 56
362 9
1236 56
206 84
1216 139
130 16
203 90
1016 104
222 19
276 36
767 43
120 67
907 128
669 108
542 130
205 116
906 11
1001 47
841 116
1173 65
87 45
770 126
977 71
1013 109
545 72
764 98
91 40
698 123
1153 22
264 92
1040 35
891 57
774 104
130 69
419 130
152 135
507 136
81 30
926 89
0 102
977 15
1186 128
1055 83
513 77
561 106
990 132
187 43
886 129
326 125
679 65
188 96
204 58
653 126
555 135
1173 23
641 61
90 126
1174 21
1202 128
52 50
309 66
1087 131
517 103
627 42
144 123
1220 72
443 78
705 5
476 37
18 39
504 127
698 93
794 99
340 92
358 70
944 116
545 22
244 29
767 46
201 41
479 93
671 41
283 35
872 91
356 18
410 43
667 66
773 102
218 101
1141 52
521 97
675 52
1196 97
1092 70
326 53
346 20
43 59
1212 70
203 69
853 64
1181 65
973 56
411 40
17 41
930 10
1198 6
416 50
193 70
11 26
204 23
724 63
21 130
441 64
551 123
522 53
641 50
920 96
109 37
454 20
198 3
659 86
1100 123
966 58
1144 65
143 55
256 5
1140 113
162 50
1219 12
637 91
192 66
477 90
298 77
450 77
658 22
505 9
496 120
560 58
413 134
1097 130
1135 66
401 128
479 116
408 34
888 38
124 56
1147 56
672 105
647 123
280 113
244 13
356 53
71 72
1125 56
252 52
717 120
215 71
957 17
499 107
586 67
511 25
265 45
1135 25
255 22
766 51
1077 105
1159 18
338 46
528 104
330 134
662 103
600 64
817 34
1027 47
579 42
242 100
1134 113
851 96
985 99
635 56
994 111
457 24
1027 88
428 61
796 127
586 49
1103 100
104 64
140 104
993 118
493 33
744 30
331 71
750 104
188 103
366 5
1122 128
960 9
307 113
878 87
874 9
306 102
579 113
1186 88
756 58
641 118
330 110
1086 84
1059 41
446 137
910 51
47 84
1 111
549 21
471 39
193 89
516 99
322 71
643 33
1012 137
18 97
603 63
260 64
507 90
693 44
1209 2
485 10
957 41
742 6
112 125
837 118
873 15
384 98
448 20
435 19
341 23
1007 128
513 83
1093 58
981 26
777 101
298 10
892 2
275 50
533 21
1051 44
1187 66
580 20
170 78
36 58
7 87
526 58
1061 78
371 97
91 105
344 19
63 126
888 98
576 84
723 29
175 109
235 91
842 5
348 135
671 86
92 7
341 113
295 93
106 134
581 76
1050 91
1051 55
537 82
1165 111
718 57
639 2
796 108
195 105
1150 29
805 11
769 85
311 51
455 123
1072 23
723 3
320 0
386 133
857 66
405 30
618 135
54 90
916 128
1086 30
475 7
41 42
1050 50
952 21
383 69
577 90
426 43
1126 123
942 25
313 92
342 113
137 12
921 137
1051 3
293 89
1243 102
885 6
947 67
1181 59
1068 45
287 84
734 101
899 0
1180 86
209 23
322 57
1013 16
660 61
277 26
1039 90
439 19
22 45
487 77
891 123
113 45
902 9
373 86
