295 47
1244 3
1053 7
1231 16
287 7
25 11
553 33
83 7
988 3
561 11
432 51
359 64
1186 3
341 7
254 12
6 6
391 2
905 43
474 11
150 6
625 7
222 7
74 19
873 11
287 0
248 35
366 35
1062 134
167 21
1022 11
30 26
367 52
1171 7
369 11
285 45
787 36
926 3
1229 12
919 7
567 9
936 17
847 7
63 2
481 6
458 11
179 33
127 17
594 9
281 47
715 2
508 7
1069 21
945 133
1113 47
157 21
93 19
698 7
467 7
750 24
90 12
178 12
502 36
957 9
1202 51
324 15
18 7
472 11
35 19
30 11
346 24
875 33
28 42
588 7
502 118
1074 3
1142 2
194 12
842 11
1235 15
264 17
867 7
1006 43
946 29
303 36
86 9
342 24
1192 7
532 3
349 11
1100 17
1248 19
1218 24
6 13
1052 11
272 17
1007 7
1215 7
464 16
157 16
994 33
938 0
385 12
847 0
321 6
216 12
1031 47
502 12
1068 3
366 30
334 3
169 16
324 43
43 0
267 24
323 2
778 11
512 15
1055 12
1062 16
940 2
604 6
258 7
846 11
553 24
212 7
1218 16
240 47
1082 36
55 11
273 43
494 36
305 16
1077 43
354 15
323 21
87 16
178 21
852 6
1248 13
553 2
140 24
395 2
327 11
335 15
29 17
534 2
713 7
558 9
277 6
394 22
362 7
291 17
519 3
580 11
111 21
176 22
327 7
503 23
959 6
68 19
204 6
1053 3
350 15
942 21
555 17
276 2
260 10
1198 24
211 2
921 11
1021 24
1110 11
252 36
1235 2
1056 7
561 7
448 12
261 7
560 57
27 9
716 3
1034 7
149 2
496 39
899 11
203 24
1123 36
167 70
337 2
765 7
189 0
208 19
1061 15
1229 3
168 17
253 11
136 43
106 11
434 16
851 9
922 7
255 7
481 7
325 3
349 7
325 11
1161 36
1097 43
1172 0
1055 7
776 3
728 36
200 16
797 3
1 5
766 9
224 6
349 19
311 0
626 40
229 24
1226 19
951 7
1022 7
150 3
145 7
985 11
1104 6
1251 0
140 17
505 22
502 17
277 99
160 6
1172 9
1054 43
932 33
266 17
305 106
184 3
217 24
323 16
15 7
803 2
1065 33
701 92
226 34
212 3
336 19
277 21
523 24
467 2
26 7
935 24
567 33
502 16
231 21
68 24
12 19
393 7
853 6
739 19
477 16
257 6
576 36
1061 36
63 17
169 3
562 33
823 7
765 11
52 19
37 7
968 2
194 83
2 2
464 6
873 16
1188 3
475 2
670 0
314 12
1180 36
226 2
23 12
783 15
10 19
113 16
1225 33
1121 19
823 6
538 24
15 22
581 7
1207 2
998 35
1084 7
631 2
122 52
85 33
1231 11
1004 6
298 2
231 9
786 63
549 6
815 9
260 11
474 6
369 36
25 21
177 9
983 24
720 11
968 3
879 33
846 7
165 7
930 7
277 72
194 85
236 3
782 3
502 6
623 128
494 6
589 2
1238 2
111 12
665 9
203 7
231 11
1126 3
422 7
52 7
81 16
200 11
1165 12
598 0
231 24
108 6
529 21
1096 3
923 33
187 17
281 3
563 11
808 11
1220 93
1059 19
59 6
1171 6
603 3
272 33
173 0
812 2
678 11
1212 6
795 36
262 11
374 7
1171 2
845 92
831 22
275 9
181 2
101 6
98 33
713 130
165 62
335 21
906 33
412 9
28 7
13 26
46 3
130 11
260 33
844 7
394 24
496 97
625 19
850 3
141 3
188 7
606 6
485 12
876 7
32 36
1070 0
182 16
63 49
327 99
386 21
848 19
295 5
68 17
32 33
582 2
823 3
687 7
1026 19
920 24
206 29
497 43
24 6
419 36
1066 7
521 2
524 7
347 0
550 2
534 47
371 33
138 9
237 0
271 16
1058 7
210 9
386 43
246 7
301 3
266 19
147 16
848 63
1037 47
332 7
407 17
200 12
351 6
851 6
296 16
1235 7
590 36
778 7
268 6
832 36
173 77
147 2
338 19
2 7
772 36
296 62
1162 36
965 24
896 7
296 7
698 118
291 11
848 36
189 7
1248 24
798 7
689 2
460 15
891 45
113 7
576 2
875 24
820 6
1171 15
808 24
866 24
252 2
308 7
395 6
395 19
577 11
292 0
189 10
1025 7
54 7
85 58
314 102
92 6
83 26
337 16
562 7
837 7
123 11
357 7
249 36
817 7
755 15
187 0
6 2
291 40
251 7
666 33
1176 3
561 36
10 12
288 11
509 6
294 0
1027 127
149 12
9 11
2 12
367 15
422 19
323 11
808 7
128 21
247 7
856 7
499 6
81 7
192 7
576 19
1211 6
801 12
576 33
351 17
395 9
85 6
1059 33
293 19
864 7
209 52
85 19
6 12
1201 7
440 7
1250 21
797 36
819 0
13 12
260 43
78 6
1226 63
82 0
464 7
856 11
1128 36
625 11
56 12
1103 21
912 7
291 10
811 0
38 7
952 9
610 11
811 2
502 123
310 6
351 21
583 7
1250 99
1029 23
228 2
293 21
1130 36
269 20
1022 2
253 7
130 7
1040 47
502 22
726 132
618 11
226 3
386 7
1129 17
296 11
367 2
50 45
1090 40
851 7
502 120
810 21
1244 5
823 34
485 15
212 92
442 9
977 7
1070 38
27 11
1144 3
362 0
750 15
98 24
854 52
364 92
32 7
908 24
1236 2
624 24
16 26
1229 6
111 2
248 7
214 43
668 3
741 7
464 11
1181 24
28 33
529 3
608 3
826 11
9 24
610 3
342 33
1039 34
391 6
383 9
395 43
674 19
273 16
95 29
115 6
367 51
441 36
229 11
143 11
158 6
186 7
204 2
14 9
364 17
1183 22
308 2
521 15
720 24
1047 7
69 12
260 29
23 35
88 2
204 7
1210 7
13 0
1227 6
200 7
1214 34
176 47
116 12
1231 6
1054 16
594 19
1240 2
721 3
375 0
191 24
314 107
0 0
364 21
806 9
122 6
1171 16
682 36
562 24
205 11
1246 139
898 7
31 11
1061 12
337 17
45 3
240 9
335 34
209 5
30 36
921 7
63 12
247 47
410 2
475 21
1109 21
628 9
769 36
1041 2
1102 7
842 7
87 29
333 2
52 9
478 7
15 6
892 22
171 11
581 34
1211 46
1206 12
605 45
1074 12
1098 21
393 91
505 6
140 19
42 33
243 64
208 63
2 21
95 7
681 45
157 15
165 43
677 7
298 17
864 24
183 7
469 2
471 33
396 24
287 12
156 0
1070 7
970 11
924 6
126 24
1243 11
380 43
270 6
914 47
691 7
862 12
1101 2
236 9
581 6
1051 43
15 26
1241 9
315 11
354 21
364 7
72 7
166 11
291 21
442 51
486 11
275 16
231 15
214 11
763 11
327 3
839 7
226 51
414 2
122 2
675 24
259 99
199 7
1199 3
362 11
1102 19
57 21
244 21
168 45
268 11
257 99
171 17
507 24
75 24
293 3
195 6
467 38
755 2
635 7
106 3
165 69
4 12
273 69
1135 6
33 24
879 17
1167 7
548 2
770 15
1218 33
584 12
393 2
780 2
872 6
1 0
508 50
932 19
122 16
82 2
367 113
285 11
154 7
499 12
470 6
605 21
475 64
391 7
259 9
569 24
64 7
18 11
1112 15
1065 24
173 34
277 3
1068 7
55 47
351 11
1250 11
77 24
610 47
396 9
324 6
807 9
946 43
1227 9
1028 3
605 9
810 7
1219 35
1055 43
830 22
58 15
321 3
649 2
1241 7
680 45
245 47
291 6
855 33
205 6
25 3
496 7
52 3
880 33
928 7
365 2
420 36
1010 40
408 11
364 34
991 24
440 17
657 36
421 2
160 67
140 12
63 22
1169 15
1006 11
396 19
459 15
272 62
828 7
238 9
81 9
524 11
161 11
279 33
343 11
405 9
681 34
829 38
573 6
14 19
567 36
1009 7
1063 6
10 26
959 9
63 37
756 36
2 19
353 6
4 9
8 26
917 3
265 33
296 19
477 11
1062 6
1069 7
566 11
506 19
706 7
8 12
1215 0
653 36
502 7
481 9
829 19
77 33
83 16
231 3
1102 6
450 36
1166 36
574 24
82 56
1036 7
96 16
628 22
487 7
815 61
96 11
1221 11
68 0
1246 7
1131 36
436 36
989 7
1076 2
323 7
851 15
285 43
321 16
806 17
349 36
609 15
934 16
652 7
901 43
641 40
250 21
278 12
546 7
628 12
209 6
1136 36
160 7
287 21
65 2
954 7
279 10
164 37
27 6
14 26
165 2
1215 43
144 7
31 23
652 11
335 16
813 2
162 22
1113 7
368 36
366 6
372 21
1226 24
364 9
1100 6
962 12
894 47
182 0
52 24
1088 33
165 20
530 3
84 6
599 6
1066 11
288 12
153 7
335 45
182 12
923 7
470 0
1221 18
804 22
713 83
286 21
488 11
1063 10
853 7
19 0
570 2
1190 6
1232 96
1008 0
406 3
82 6
184 9
296 3
925 7
682 16
921 3
77 51
1213 6
390 3
759 47
1056 3
637 9
1250 23
24 39
186 2
162 12
502 0
691 15
182 3
1221 9
14 6
499 7
337 7
293 7
697 2
323 43
153 6
742 42
114 2
352 34
178 9
281 43
258 6
361 7
478 21
1195 9
1171 0
275 6
308 6
855 24
411 24
790 47
160 45
1196 7
881 11
866 7
1232 9
1111 21
272 6
226 11
1238 11
596 51
489 12
680 11
1122 36
819 11
415 45
698 22
177 2
802 12
966 33
854 7
234 36
648 7
260 22
194 36
141 43
28 24
194 84
177 33
354 24
193 7
514 3
137 6
146 24
1236 6
590 51
834 51
260 6
369 34
1147 2
1248 2
345 11
986 24
857 7
486 9
280 7
761 15
295 44
713 3
1021 7
935 33
210 19
901 118
1203 24
352 99
1232 11
1226 21
209 64
1130 2
1060 36
734 2
815 11
477 47
381 11
254 0
53 2
612 7
209 7
805 3
2 3
783 12
87 23
1206 78
303 7
1195 63
277 63
122 10
864 9
502 10
876 30
586 19
888 33
244 24
516 36
513 2
345 24
1066 17
816 11
277 69
458 2
189 45
106 45
395 10
1059 24
555 43
856 16
291 2
466 7
230 19
154 26
327 22
393 0
60 45
335 11
19 7
388 7
1192 12
1233 7
173 12
543 7
634 7
17 0
277 101
805 7
254 98
254 9
999 36
851 12
150 33
194 6
397 99
951 52
25 9
321 11
126 7
97 43
200 34
167 36
259 6
517 7
102 0
504 7
1074 7
825 61
378 7
496 0
627 7
257 36
1183 21
680 61
252 11
31 16
76 51
271 3
3 7
671 15
701 47
1169 11
28 37
879 7
321 33
666 19
168 34
345 6
193 17
171 7
410 15
1061 7
51 7
489 34
188 12
670 11
980 11
236 16
1100 35
227 10
212 0
203 10
876 11
1249 7
1000 2
627 29
1114 13
263 2
853 22
324 11
394 17
247 9
937 24
1236 7
542 24
922 0
823 12
320 7
891 34
1095 21
502 43
378 43
867 33
848 6
394 9
142 26
69 2
30 9
1250 16
171 2
991 19
1054 29
492 46
95 11
925 2
200 6
140 10
788 11
1111 3
165 12
998 6
231 33
295 16
165 40
973 12
774 12
281 71
449 36
296 49
805 2
556 11
716 2
871 7
337 34
982 3
1229 17
423 11
567 19
915 17
295 6
1 12
1183 7
222 63
209 93
238 36
277 15
62 11
824 2
1057 6
579 7
1222 11
500 2
4 11
495 3
203 9
1224 3
775 7
293 24
975 33
748 9
1243 21
493 6
274 11
269 12
1081 11
623 11
631 3
282 11
79 6
1152 36
159 22
1003 11
1 9
388 22
285 0
394 43
14 2
886 2
252 7
1221 7
435 7
1003 7
831 6
865 29
707 6
1222 7
610 9
1036 16
875 19
285 6
259 7
273 12
884 35
104 11
1193 7
253 6
1173 24
863 36
63 11
943 11
530 36
1002 33
920 19
977 11
510 12
212 19
154 9
310 24
397 11
19 9
287 24
950 0
204 9
511 2
507 19
231 7
807 40
680 63
408 16
393 11
681 61
209 91
524 52
477 7
347 7
1194 12
58 2
917 24
311 12
173 33
342 5
1123 16
804 12
963 11
281 11
1001 33
641 16
542 7
1013 7
211 6
512 24
256 36
422 33
1080 7
809 7
254 2
1133 3
341 6
572 2
499 19
1012 7
18 6
200 10
140 33
243 11
33 6
285 21
582 7
54 11
1244 2
1069 6
268 24
202 11
304 36
358 7
1051 21
1192 24
574 2
253 43
931 7
788 7
556 2
9 18
356 7
30 3
45 2
157 7
9 26
29 36
1028 2
162 6
4 13
507 2
390 10
503 0
440 24
1229 7
877 19
387 3
1002 6
304 7
849 36
294 16
314 2
88 17
1212 0
1168 7
378 34
269 17
617 16
4 23
847 17
295 2
1214 0
610 12
283 13
594 24
32 5
14 7
249 2
258 21
1185 6
329 36
259 43
264 9
294 7
218 9
62 6
1048 22
1190 10
1068 22
1154 36
477 5
430 36
307 11
275 2
50 6
637 11
2 15
408 30
12 7
205 7
567 7
322 9
900 33
346 19
366 9
948 33
139 9
349 0
76 24
714 7
603 0
1207 0
1244 7
610 63
562 3
1045 7
25 6
162 0
1223 11
349 10
990 7
613 3
162 29
609 0
82 7
1010 7
4 2
81 23
1197 36
4 7
1232 36
1022 96
171 46
947 7
85 2
677 19
1131 24
1171 12
660 11
670 7
927 7
500 11
1103 9
154 3
357 47
725 2
488 49
325 109
279 24
390 7
203 86
1183 12
122 0
372 33
243 21
103 7
160 10
1043 7
381 13
192 0
1002 24
725 17
553 43
190 17
1138 47
878 19
386 3
1075 3
4 17
262 47
169 11
243 6
70 6
716 15
125 6
140 11
865 16
426 12
616 11
1226 7
210 2
183 11
273 0
870 7
217 7
794 3
168 11
83 2
173 15
902 24
30 7
823 11
267 33
447 30
86 2
502 33
972 3
560 11
369 2
184 45
337 6
397 0
1077 7
760 47
237 9
397 16
116 6
496 9
25 7
94 6
60 34
1073 0
344 11
852 43
1021 33
878 29
287 6
577 7
7 13
259 62
294 2
386 6
181 12
568 6
998 43
401 3
524 19
904 43
96 45
1047 6
529 6
440 19
81 0
40 21
16 2
1150 47
748 3
1174 36
501 3
1146 3
141 11
497 6
321 9
201 7
126 6
986 33
303 0
1244 11
492 7
322 24
835 3
188 11
889 7
488 7
281 15
1246 19
177 0
561 126
628 69
724 38
1158 7
822 7
224 3
636 3
788 15
187 7
1220 12
1 7
522 17
817 2
321 24
162 3
23 38
1088 9
20 26
488 6
1226 11
277 13
988 2
1230 2
169 5
242 36
650 3
14 12
103 17
177 15
183 12
269 24
371 7
509 0
459 2
494 2
1046 7
160 66
809 40
368 96
263 3
453 47
272 11
467 6
169 22
1104 24
523 7
211 7
110 33
823 30
474 3
825 2
340 9
811 7
1156 36
1187 3
68 33
273 20
277 12
22 11
281 34
866 2
555 2
143 26
858 2
370 36
792 11
342 11
209 90
809 2
1181 19
31 7
95 3
348 36
28 11
19 17
22 36
564 43
1050 11
247 10
215 7
149 16
1184 7
7 12
28 3
957 0
298 7
610 24
879 24
354 44
125 7
149 21
497 9
231 25
1 3
97 11
16 12
1001 0
680 15
331 3
448 2
967 21
1148 36
162 2
141 21
819 40
281 17
1039 6
349 6
890 7
515 42
424 11
698 36
1185 19
829 33
15 3
495 6
70 2
555 6
338 17
13 9
1102 2
738 11
224 11
582 6
1205 7
15 9
958 24
234 11
478 99
206 12
435 40
200 15
831 9
217 22
476 3
482 2
229 21
165 11
968 11
1074 6
431 6
964 7
1154 0
1014 127
678 7
885 30
133 24
745 15
676 51
628 20
302 36
56 3
867 6
293 43
428 6
956 6
122 21
376 17
292 7
485 7
40 7
182 11
275 0
22 3
623 22
133 2
200 0
499 11
962 21
1211 7
1122 24
224 7
18 26
367 96
610 0
1207 11
866 19
232 19
965 33
873 40
393 19
560 9
864 11
502 2
238 0
985 12
1248 17
961 21
364 30
1124 137
858 19
176 12
205 89
1172 16
372 24
147 7
994 11
311 11
1039 21
1232 17
465 36
996 36
305 52
281 87
390 9
316 7
85 24
1172 24
1 11
645 2
1233 17
819 2
273 22
610 2
809 16
469 7
24 7
351 3
224 63
275 15
352 15
49 6
30 12
10 7
32 24
149 11
465 63
408 3
476 7
995 43
784 12
204 24
169 6
529 7
227 36
1122 7
211 11
985 6
276 11
867 24
291 7
259 0
367 34
897 2
428 64
133 33
236 43
50 21
229 19
825 7
561 9
1002 22
1070 6
789 36
34 6
63 40
140 7
244 33
818 6
547 17
111 7
238 15
284 0
502 37
97 6
1060 15
912 47
25 17
161 6
337 11
970 7
326 17
1060 6
1112 9
291 34
1059 43
1178 36
167 6
559 7
320 16
554 7
116 2
161 3
994 7
369 17
1060 43
1218 125
792 16
227 7
390 16
271 29
204 11
1182 35
81 53
171 6
13 6
62 16
580 7
61 0
257 7
1033 47
170 15
757 2
26 36
221 7
1227 12
182 33
162 7
697 47
61 6
454 2
725 11
74 24
16 7
4 22
133 7
1098 30
767 2
152 26
109 7
229 3
182 19
464 12
460 12
344 2
81 11
557 9
791 11
108 11
33 33
667 3
325 51
211 52
288 87
25 24
490 9
378 40
813 7
149 22
209 17
610 16
903 43
298 33
671 11
111 11
716 24
845 33
24 24
1172 12
754 3
1016 0
823 16
823 89
354 33
715 11
214 7
385 13
499 2
900 24
308 21
502 24
1215 9
908 10
980 7
324 9
1232 21
639 21
86 23
220 11
498 47
521 45
192 24
320 6
595 11
561 0
26 40
508 2
992 16
147 12
205 86
554 12
1123 2
965 19
1042 2
1186 11
112 6
152 11
366 24
1122 3
162 16
712 2
1183 10
354 7
478 0
570 51
606 2
277 11
841 7
353 11
386 17
864 33
273 6
953 33
698 2
135 33
866 0
1106 42
1235 11
272 100
266 0
377 6
10 9
470 7
1 2
165 9
184 46
895 24
876 3
173 7
167 3
838 11
567 2
607 9
599 2
7 9
190 3
988 9
976 7
1042 11
410 11
51 11
561 96
369 3
584 7
266 34
907 7
155 3
668 36
177 50
131 6
1187 7
57 11
395 12
627 16
4 6
171 45
312 0
885 3
1037 24
116 63
271 30
1051 11
122 45
1112 7
713 82
406 36
392 7
42 2
372 10
631 30
10 0
588 52
1001 19
171 16
160 16
133 3
976 11
1163 11
39 6
265 7
366 47
773 12
386 9
1102 11
1042 36
165 0
250 97
286 11
206 16
203 16
140 2
205 0
18 34
702 0
475 10
867 19
232 9
826 7
277 9
1009 21
268 7
1227 11
259 33
47 7
460 3
164 17
2 17
260 19
219 52
1185 24
196 2
372 9
591 7
265 24
352 6
180 12
474 9
288 103
1200 36
471 24
1018 6
22 7
19 3
254 6
926 7
275 22
359 43
19 10
189 17
781 2
581 3
826 6
341 9
168 71
991 33
152 2
194 7
281 6
606 7
698 12
476 13
63 21
1179 36
76 52
566 2
1196 6
1055 24
397 2
582 11
1238 3
56 7
206 22
497 7
37 6
1001 16
285 7
1207 3
229 7
933 16
567 21
1225 24
765 15
832 47
883 36
328 36
167 12
168 12
134 3
19 2
2 11
394 19
110 24
516 0
785 3
1206 2
187 82
567 24
724 24
215 3
124 63
122 42
160 47
249 19
1163 82
423 7
358 43
1172 33
429 3
322 19
571 2
1246 46
172 7
337 45
723 16
784 47
1201 22
293 0
281 2
1107 2
321 15
1039 7
87 7
426 22
826 9
311 7
632 7
415 0
157 17
84 19
221 9
335 2
204 16
253 2
79 3
372 6
558 21
269 7
4 16
846 47
335 17
561 21
991 6
379 30
1227 15
66 7
1220 16
113 52
967 36
386 77
164 24
345 12
474 43
1089 36
287 89
16 3
108 30
82 21
111 26
212 16
1057 7
701 7
815 2
367 11
58 7
524 24
182 7
1169 6
523 0
122 13
533 2
1121 24
54 9
272 9
291 9
181 11
1206 7
86 6
1215 6
1132 19
122 46
275 99
200 9
266 7
616 7
1175 47
85 7
56 30
166 7
821 24
939 22
208 7
8 18
694 3
233 29
164 19
106 15
853 12
245 11
456 36
523 33
1013 3
346 3
486 12
727 0
642 24
125 36
1014 3
60 11
815 43
1221 17
1078 3
1024 47
11 19
577 42
150 2
18 29
1088 7
314 11
165 16
1235 24
367 9
1045 11
397 9
1061 6
929 7
558 7
305 9
156 7
372 11
501 36
299 7
463 6
820 7
155 7
679 3
1149 2
923 24
496 6
371 24
1250 3
1216 3
1069 123
200 3
249 24
1231 7
638 21
610 6
167 7
1171 24
623 127
238 96
22 6
278 29
788 2
1235 35
215 9
415 7
7 2
611 36
731 2
122 24
1171 21
609 11
273 2
342 34
998 7
388 9
212 90
502 9
40 6
983 33
1001 15
62 7
250 2
174 7
1016 3
1145 36
186 24
943 7
1155 36
505 0
513 36
373 43
492 2
987 24
1221 36
50 16
702 52
77 19
212 9
352 12
295 22
2 20
1214 7
1228 24
205 16
150 7
385 43
707 9
411 19
366 7
480 7
464 2
811 11
852 9
1079 24
81 3
974 42
157 9
1050 7
698 9
279 7
1190 33
27 17
808 40
568 2
783 47
494 0
192 2
1123 6
1002 12
810 45
327 34
443 2
457 7
1221 3
221 24
706 3
177 7
6 24
547 7
1183 43
998 33
1185 2
209 10
1171 99
1015 43
51 3
472 2
1227 16
216 7
104 2
1246 45
169 9
833 36
866 33
1198 19
205 77
1151 24
190 6
819 47
5 17
829 12
25 33
807 21
205 88
576 24
277 7
826 10
724 33
700 2
821 33
1226 15
335 7
601 11
688 2
811 3
372 22
1018 19
1 10
54 6
781 11
321 45
18 24
366 3
59 35
57 6
730 3
1153 36
709 7
1096 16
173 6
1204 47
23 11
188 2
744 63
268 29
10 2
81 21
969 6
209 11
358 19
486 21
589 11
294 11
69 6
764 36
445 16
704 23
880 24
247 36
18 12
397 85
455 11
248 36
975 24
1000 0
143 21
96 61
610 99
376 43
606 43
200 43
232 24
1177 0
626 16
1141 47
164 3
83 47
762 51
381 2
323 6
221 2
724 2
41 17
260 9
989 2
815 34
325 22
1173 19
755 12
342 9
675 11
715 12
135 24
902 3
190 45
550 3
1183 9
1 6
690 19
393 17
1240 19
1233 43
1232 7
354 16
358 11
115 7
351 2
806 7
1227 21
486 2
859 3
342 16
485 3
735 47
296 24
177 22
270 3
169 2
167 11
567 11
215 11
1220 2
163 21
1193 0
565 7
715 0
266 21
345 0
595 7
371 40
28 41
955 36
519 7
260 16
107 15
143 2
495 7
1170 3
1043 36
1206 9
82 12
152 6
325 0
80 6
677 15
815 45
1002 21
9 16
1062 89
1062 11
296 51
354 19
1192 0
226 17
9 12
593 0
964 24
205 2
1227 7
485 0
1110 2
1120 7
628 2
108 3
768 47
416 0
712 47
25 12
1062 40
857 11
799 11
368 35
269 10
293 64
699 11
18 16
50 7
825 40
166 2
628 11
985 45
248 2
1088 6
452 15
1211 35
1244 12
944 3
273 11
478 6
1244 0
701 63
628 16
801 2
1248 3
894 7
85 57
756 7
1189 7
246 2
72 11
203 6
826 22
324 7
925 16
320 9
568 36
826 16
66 9
259 64
267 19
673 7
203 33
808 33
46 15
17 3
1015 7
316 6
337 29
173 17
161 24
61 7
273 99
683 36
987 19
661 3
1223 2
203 19
386 12
1171 63
24 12
877 24
373 7
54 21
1102 51
245 3
477 34
22 12
991 7
245 64
180 7
1049 24
736 9
355 7
1185 7
354 0
4 21
221 3
819 7
338 24
1032 21
807 11
246 9
95 6
373 17
1068 11
1248 6
258 62
2 18
743 34
149 0
337 111
685 3
1155 47
1194 6
830 24
42 24
352 0
50 46
339 2
710 3
1185 63
88 51
555 7
467 3
345 7
388 12
393 9
475 6
18 9
916 7
285 102
787 47
82 17
563 7
32 26
205 17
483 2
998 24
998 11
847 2
16 29
1011 3
68 2
46 6
434 11
1115 47
361 67
1108 136
18 2
1070 3
295 10
275 12
185 35
168 36
397 7
601 102
18 0
1098 39
568 11
10 6
268 3
379 3
652 17
184 16
662 3
86 7
1042 9
695 13
50 11
469 6
281 12
376 11
275 7
247 34
314 7
1221 12
1125 7
597 2
649 52
568 16
493 64
143 7
293 11
941 16
372 19
521 61
293 17
394 11
1191 3
1131 19
106 6
603 7
305 40
171 3
495 21
160 11
497 15
175 6
21 36
1235 33
191 33
939 12
223 96
496 3
18 33
264 6
234 6
791 16
1094 11
953 24
366 43
257 19
177 3
427 7
207 7
851 11
565 3
629 7
260 24
1160 24
505 29
775 3
1127 36
687 33
354 6
847 9
75 33
1194 22
530 2
445 7
808 16
189 34
992 46
497 3
288 6
724 6
177 40
905 11
841 16
811 45
502 96
1221 2
1250 2
1246 15
535 6
397 17
69 7
50 44
305 3
978 43
723 47
140 0
232 33
369 10
85 11
178 7
285 33
864 3
941 29
825 11
814 7
856 19
1021 3
272 24
1057 21
16 21
869 29
802 22
1057 82
720 19
1134 2
209 3
249 7
271 2
1001 63
1042 29
597 9
1019 6
1105 3
767 11
39 17
1247 17
152 9
151 7
856 2
807 7
1240 24
188 34
422 24
85 17
351 7
247 21
1227 33
836 19
305 15
19 6
386 0
140 3
254 17
1081 7
490 3
628 0
1243 0
605 46
238 7
816 7
166 12
1242 12
351 9
729 52
805 40
232 21
1020 6
236 7
981 17
502 11
825 6
55 45
364 39
188 72
1243 9
231 43
305 24
285 24
838 7
187 11
842 52
177 19
264 7
968 6
787 63
287 11
227 49
960 36
335 6
175 17
1103 6
957 21
1250 7
1171 17
903 11
254 7
169 0
1164 7
168 72
323 0
1055 6
408 2
628 6
504 125
300 2
8 24
768 11
161 7
477 36
566 43
811 16
369 47
1057 55
127 7
287 45
765 16
492 11
853 11
116 24
24 9
493 36
129 17
353 19
675 33
1030 47
592 9
1001 7
1249 16
388 2
385 21
485 6
146 6
306 7
290 11
605 47
1171 11
967 7
27 36
325 7
926 2
707 3
308 11
1172 45
177 11
250 17
829 3
838 2
663 3
1001 40
120 7
259 21
474 2
63 7
173 3
173 76
468 7
1132 24
743 7
367 36
52 12
967 11
985 61
336 7
758 2
1195 6
451 63
1219 6
551 2
386 2
807 2
483 11
471 7
916 24
648 2
15 2
408 7
914 7
492 6
1242 36
19 35
154 0
566 7
823 2
175 2
786 36
966 24
932 24
339 7
487 0
173 21
599 10
160 12
169 24
367 17
140 6
385 34
238 10
389 3
601 7
1086 3
288 9
303 3
628 7
367 19
823 24
486 7
806 2
700 36
617 7
29 7
1172 7
152 0
527 3
257 33
1 13
360 16
946 16
458 107
365 11
352 17
31 36
477 2
793 7
969 34
253 62
899 40
725 0
1102 3
853 34
179 24
810 43
281 9
269 33
222 6
800 3
733 36
489 3
1163 12
73 6
208 11
279 3
158 21
842 43
1043 6
519 13
582 0
1172 19
320 11
226 9
633 19
845 7
674 24
19 11
162 11
1220 19
161 12
324 0
1246 12
873 7
269 9
323 9
152 7
63 50
1221 0
1189 6
353 24
787 0
1026 24
22 9
505 2
988 7
1119 36
165 22
184 7
1227 10
259 24
164 7
286 6
224 9
525 36
1243 6
341 2
780 11
246 36
358 24
413 11
145 6
30 5
806 21
397 92
360 6
1001 2
260 0
46 7
44 6
722 3
395 3
157 10
1207 7
561 15
24 17
312 35
266 91
99 7
987 23
122 7
413 7
208 43
1072 21
1239 6
366 15
111 6
586 15
123 21
830 33
311 39
521 11
641 7
1228 19
217 19
1246 9
150 24
133 6
354 11
467 9
30 2
10 11
868 24
203 11
434 23
114 6
1018 33
708 6
608 7
225 7
330 63
205 29
51 10
929 3
478 11
1085 7
247 2
505 34
82 10
502 40
248 24
36 6
238 6
13 11
605 17
843 3
326 2
262 33
574 19
1109 17
415 61
388 19
415 16
396 7
248 19
633 24
57 16
805 21
230 24
272 7
929 43
684 3
352 10
617 40
147 11
607 7
674 33
605 16
273 7
578 35
476 6
709 2
1005 17
19 21
277 40
1060 7
481 12
1224 30
773 3
994 24
1207 51
386 11
900 7
489 11
445 40
428 7
250 11
539 24
305 11
1249 2
349 3
326 11
315 6
38 6
71 9
323 45
24 33
934 29
200 22
354 43
2 16
608 11
1193 12
314 3
342 7
154 22
1079 30
547 43
355 6
829 24
434 7
74 33
96 34
587 3
27 7
895 33
387 6
178 17
169 7
257 9
322 11
1071 7
285 30
305 2
367 47
481 11
94 0
184 11
118 24
520 11
85 21
1213 15
961 33
354 2
7 7
760 11
1160 19
131 7
1117 7
168 3
925 46
646 2
478 116
82 9
266 16
80 2
224 2
35 11
1063 7
163 6
212 17
1071 6
491 6
848 24
51 16
1001 69
609 7
168 7
223 11
91 6
221 19
138 7
1157 47
359 3
993 7
1125 137
324 47
599 7
173 24
558 29
234 7
369 43
716 19
321 21
491 7
231 12
511 52
690 2
1226 10
223 9
1077 12
85 12
675 2
1123 43
175 0
1102 21
177 24
288 7
187 15
353 7
1016 6
998 16
1140 36
250 7
1062 7
120 2
182 9
548 17
209 16
771 3
460 7
21 21
387 7
1235 6
248 3
217 17
696 51
395 11
257 24
890 47
681 11
141 24
267 7
69 21
1037 19
234 15
1079 16
692 11
461 3
843 11
256 29
713 9
203 29
280 6
1210 11
1105 17
313 7
281 0
1066 6
8 7
247 11
159 12
409 3
633 15
274 7
366 19
473 6
141 7
364 0
374 43
715 7
882 7
14 3
82 3
1074 40
1038 47
216 3
1070 12
1220 36
1001 24
991 2
718 15
314 40
875 7
271 21
72 3
352 64
1105 2
72 2
483 7
460 22
259 11
235 36
518 43
1194 63
385 3
791 7
369 7
327 2
871 82
1070 2
852 7
1098 10
933 29
1102 135
1134 7
959 3
245 6
85 16
1116 36
290 7
297 21
1193 3
610 33
166 9
453 2
176 7
190 11
498 9
76 7
141 33
845 6
847 11
1221 45
1050 40
95 16
285 3
477 6
997 36
365 7
793 52
821 3
1192 33
9 3
285 19
610 7
998 36
1032 6
924 21
1215 11
448 47
687 24
576 11
352 2
758 11
169 21
369 0
489 21
117 36
1039 3
489 7
1139 47
711 3
569 33
272 21
1035 6
567 44
1169 7
53 3
997 6
397 12
1036 40
1087 36
281 7
70 7
859 7
390 40
249 11
605 6
149 6
701 36
702 7
154 12
92 11
103 0
543 52
205 9
435 16
1211 16
1008 22
247 6
45 7
97 62
1048 7
630 2
40 23
388 40
810 2
205 78
497 16
246 11
1056 69
19 12
80 0
363 7
321 108
364 6
1058 22
666 24
275 69
580 3
352 7
288 47
232 11
205 10
639 129
81 2
1066 40
32 2
743 63
232 6
857 16
23 7
625 24
173 11
253 21
1028 7
853 2
277 2
95 17
1232 16
367 24
267 17
744 36
352 9
811 12
149 7
861 0
801 22
281 13
735 3
1227 29
50 12
509 11
16 16
577 3
847 63
173 2
1017 12
992 45
108 62
209 92
669 2
552 12
57 7
249 6
575 9
310 7
1077 9
233 6
638 43
1013 6
478 10
1188 33
1220 7
265 19
7 6
100 7
295 104
169 29
212 5
322 0
603 42
291 24
314 9
1051 2
544 3
1042 7
4 0
479 7
1061 43
204 33
725 16
13 17
106 7
805 12
540 47
521 3
1089 2
434 47
305 7
336 24
333 11
188 3
595 2
226 52
346 2
474 7
298 24
868 33
273 62
560 2
1248 7
1246 16
516 2
877 29
19 16
504 16
84 7
122 11
342 17
205 24
779 11
651 3
37 0
668 17
200 2
672 11
132 3
150 65
519 6
231 19
715 34
505 40
1188 24
391 12
308 9
293 6
682 29
1036 19
117 21
17 30
979 6
1239 7
295 7
85 0
898 47
1190 24
9 2
561 6
560 7
602 3
906 24
205 33
366 34
317 3
699 2
364 2
536 21
864 30
349 9
1098 3
268 33
1021 11
1042 16
188 45
917 19
1183 40
906 43
605 7
295 17
337 9
160 0
393 43
805 17
1247 43
296 6
494 7
703 51
56 15
805 6
715 43
560 21
779 7
70 21
169 33
163 7
1089 3
1055 9
1213 7
464 9
498 3
724 64
709 11
467 11
1124 7
542 19
860 19
568 17
256 16
253 0
45 6
1206 17
366 21
777 36
623 7
390 11
269 2
961 24
254 11
85 23
1249 40
159 7
221 11
1238 9
53 21
168 6
308 34
484 47
209 2
480 34
576 6
505 7
337 43
364 90
509 7
296 33
499 3
1088 2
435 12
901 12
336 83
160 2
194 35
984 21
677 24
1079 33
1137 47
623 12
502 21
272 99
483 9
1159 7
388 16
190 0
367 6
442 2
6 19
475 11
295 3
1088 24
1001 3
1056 11
737 36
199 6
82 16
1091 3
478 63
717 7
277 22
963 34
884 34
1228 47
1108 7
189 3
232 7
707 12
240 6
500 7
186 11
646 11
367 7
2 9
134 15
825 16
716 43
447 3
165 6
910 7
1123 15
1220 6
612 9
192 9
926 16
1096 6
966 36
909 10
556 22
1246 0
755 47
295 105
1094 7
126 3
1214 6
481 17
595 15
679 36
76 33
492 16
53 6
8 11
468 6
364 11
626 7
778 16
518 36
289 24
277 16
813 11
815 0
393 63
366 11
204 87
209 9
1227 63
275 11
321 2
27 12
442 15
475 3
385 2
219 7
212 2
80 9
82 55
177 12
258 11
138 64
475 9
908 33
690 24
338 7
1007 2
998 102
147 29
971 7
68 22
70 12
1018 24
295 11
268 19
80 11
359 7
673 12
371 16
7 25
367 35
269 19
1005 2
453 11
9 7
134 6
1064 34
446 22
558 11
186 3
311 6
200 19
887 7
811 29
47 43
1175 36
524 6
111 17
365 3
568 21
180 6
48 22
385 7
492 62
209 0
32 11
442 7
692 2
262 42
599 47
583 47
25 10
494 10
1169 0
757 11
285 34
382 6
1190 3
1088 5
891 11
314 6
699 36
1095 6
567 17
725 46
385 6
1220 24
870 92
1206 11
352 11
176 78
346 30
119 26
1227 17
266 3
177 16
342 2
822 3
899 7
112 47
192 33
888 24
245 16
73 43
291 12
277 34
604 7
477 96
1093 7
349 86
7 19
1078 7
1039 30
13 7
620 24
1112 40
2 13
262 24
99 15
792 7
226 7
172 2
836 24
46 21
122 17
373 34
1111 15
1143 2
236 11
713 0
133 19
354 12
1234 24
666 2
1099 21
172 6
523 12
491 3
96 29
649 7
399 17
1222 2
647 29
25 22
700 6
46 2
215 47
1022 132
1108 9
886 11
1227 24
142 3
948 24
266 29
749 15
859 19
322 7
311 2
287 22
372 2
750 19
142 7
643 3
1079 3
1232 6
253 82
845 24
367 10
818 49
481 2
1022 35
553 0
82 11
713 131
6 7
277 0
707 43
524 29
896 47
148 43
853 21
209 19
360 7
52 11
779 16
732 51
1151 19
567 3
388 11
1219 21
343 2
586 24
1001 17
118 33
163 11
126 33
352 16
725 7
966 21
860 7
287 2
140 16
768 61
926 46
511 7
1123 21
1112 11
157 6
1123 7
133 63
554 22
1046 11
729 7
182 24
85 59
52 16
262 2
937 33
542 2
768 45
756 12
1068 21
325 110
8 16
347 43
177 36
161 33
315 7
84 24
146 19
520 2
903 7
266 11
367 21
410 12
823 39
599 12
454 0
22 37
93 36
622 15
85 9
354 9
999 0
815 7
262 15
230 3
633 7
194 2
290 3
723 7
1118 36
783 2
1056 16
116 19
37 2
15 12
415 11
1203 19
574 33
296 2
826 2
260 7
1088 16
15 19
1242 7
423 16
795 0
740 2
541 36
106 61
327 12
1058 36
848 15
724 7
502 19
185 6
691 47
878 24
979 11
1229 2
89 2
321 7
190 7
