435 40
623 11
395 4
1246 139
529 4
561 36
562 1
353 7
259 0
50 6
42 2
834 51
813 28
825 2
388 1
173 76
608 4
354 8
1037 1
828 7
1192 24
1171 1
566 7
103 17
304 7
390 10
296 3
933 29
725 0
1018 24
254 6
736 9
1051 21
205 1
474 9
246 2
371 33
1250 1
22 28
915 17
779 7
329 36
812 4
517 7
1208 4
946 4
778 11
938 0
266 16
467 6
581 28
459 2
901 118
1002 21
48 22
208 11
342 11
374 43
722 3
30 4
386 17
460 3
83 16
122 7
691 15
806 2
25 11
1173 24
809 7
440 24
1238 4
547 7
493 36
808 11
1196 7
296 16
1188 3
337 17
288 12
497 6
926 3
14 1
1032 21
851 9
891 45
481 17
285 6
372 11
277 2
1001 33
15 2
1021 11
1013 7
113 16
227 1
18 7
865 29
361 1
459 15
823 32
272 9
364 6
82 28
311 0
1203 24
720 19
1223 2
1089 2
1055 9
228 2
838 11
165 62
1226 7
991 24
964 7
367 17
177 36
178 1
702 7
189 10
315 6
356 7
302 36
25 24
139 9
53 6
45 2
682 28
1051 11
674 24
808 24
1123 36
1108 136
231 12
1229 17
168 72
215 4
698 9
603 0
926 16
140 10
435 7
778 1
181 11
750 19
349 4
161 33
352 9
486 9
499 28
519 6
1021 24
994 7
257 6
1041 2
645 2
397 17
625 24
906 43
260 11
857 1
648 7
394 11
266 91
345 6
386 7
728 36
292 0
63 28
991 1
1215 11
819 11
523 12
724 2
470 6
1153 36
858 2
93 19
253 8
25 1
576 24
1207 7
200 2
191 33
1225 24
211 11
808 1
2 17
203 7
505 0
1204 1
337 7
599 7
34 6
160 45
1154 0
549 6
254 9
287 6
675 2
372 1
787 63
424 11
288 87
759 1
162 11
154 7
322 0
205 89
165 16
71 9
1145 36
1191 3
291 12
560 57
492 2
238 6
1157 47
257 19
899 11
40 21
1074 12
637 11
629 7
260 24
394 24
367 7
1192 4
359 3
189 0
922 0
1101 2
336 19
765 16
74 19
443 2
253 21
1100 6
200 15
1024 47
1185 1
580 7
366 47
184 7
358 43
1001 0
1229 7
706 3
14 4
1183 40
967 7
1175 36
959 3
70 21
226 9
9 11
793 7
28 24
397 7
853 21
826 4
1214 0
1046 7
906 33
792 11
260 1
564 4
177 3
847 63
21 21
1055 12
618 11
610 7
1039 4
956 6
10 11
478 116
2 7
366 24
390 3
169 4
1194 63
275 22
86 6
769 36
192 24
212 2
1210 7
560 11
351 17
28 1
1156 36
215 7
162 1
248 4
1157 1
644 4
382 4
696 51
214 11
811 1
5 17
165 6
917 19
823 12
291 2
9 24
28 37
223 96
257 9
241 1
396 24
375 1
1172 16
199 4
1024 1
815 7
325 0
116 6
157 7
271 29
160 12
757 2
192 1
203 10
1123 16
1028 7
150 4
209 90
632 7
1195 4
677 15
496 3
582 6
111 12
236 43
77 19
9 1
625 4
853 11
1054 1
981 17
845 7
1160 19
792 1
583 7
187 7
146 6
321 7
238 9
970 7
1068 21
670 11
274 11
1058 7
293 24
408 11
448 47
1091 4
138 7
680 61
512 68
149 16
1183 7
1134 2
275 12
1221 1
167 70
13 12
286 21
327 22
205 33
393 4
244 24
217 7
1001 3
1042 4
55 8
351 7
1176 4
959 6
173 0
1065 24
368 96
214 1
1126 3
689 2
1098 21
1232 21
823 2
716 19
454 0
606 4
826 7
639 1
772 36
477 2
81 2
1190 24
260 4
1221 11
293 1
521 45
1213 7
30 36
951 7
54 21
168 6
691 47
920 19
160 2
1099 21
294 2
1018 33
810 4
555 43
272 100
32 2
567 17
1164 7
169 7
779 16
161 3
1227 63
1228 28
1220 24
1240 2
111 2
507 2
1023 4
277 34
28 4
248 7
61 1
194 36
992 16
415 4
212 90
373 7
460 12
42 24
232 21
1068 11
122 16
605 21
670 1
274 1
502 8
1140 36
1186 3
199 7
408 1
809 16
628 4
232 4
1016 0
373 43
366 4
157 10
574 33
149 6
275 2
335 16
286 11
327 12
1220 1
642 24
621 1
16 7
445 4
68 17
142 3
611 36
175 0
349 36
141 7
529 3
320 9
226 2
1232 11
855 24
278 12
229 7
707 9
866 33
176 1
886 11
281 17
141 43
396 4
342 33
825 1
1012 7
19 17
616 7
608 3
354 7
991 33
1045 4
346 3
173 75
1171 0
305 2
397 85
700 6
54 11
1088 2
1215 43
1079 33
692 2
389 1
475 4
502 21
1227 17
904 1
609 4
1038 1
205 0
386 75
821 3
567 7
171 7
182 16
1 4
497 28
934 29
1040 47
468 1
140 19
520 11
57 21
426 4
372 33
560 4
1251 1
285 28
1042 7
269 20
411 24
1021 33
1075 4
813 4
1209 4
783 12
18 29
353 19
30 3
486 54
856 2
164 3
859 7
122 6
209 11
114 2
201 7
293 4
1246 7
1238 3
732 51
288 11
335 6
321 108
810 7
327 2
756 36
65 2
372 10
277 1
15 1
288 47
502 119
254 54
946 16
18 6
1098 1
152 6
1232 1
627 7
1056 4
1069 123
1002 33
1190 4
269 33
1022 11
281 7
27 11
227 36
960 36
19 7
762 51
554 22
460 15
63 50
83 28
397 75
471 24
75 24
323 9
638 21
1235 11
106 11
314 40
1227 7
494 7
4 0
232 7
224 3
748 9
189 45
873 40
505 22
787 0
337 29
570 2
316 6
1022 132
308 2
945 28
1060 15
502 96
937 24
1052 11
1220 4
349 3
675 24
352 8
654 1
57 11
46 2
874 4
183 7
478 4
866 0
612 4
269 10
216 4
946 29
395 6
133 6
521 2
562 3
291 34
42 4
707 12
311 12
888 24
8 11
209 1
825 4
1226 19
1045 7
167 4
649 7
387 7
775 3
84 6
379 3
725 2
288 1
253 43
891 34
246 4
474 11
628 69
191 68
466 7
1071 1
1250 3
231 24
1169 15
988 3
1029 4
383 9
182 19
551 2
163 6
926 28
561 15
486 21
847 0
82 17
310 24
813 7
805 3
409 3
155 7
554 12
755 2
63 40
680 8
512 15
295 17
523 24
60 34
106 1
147 2
839 1
576 36
641 16
968 2
231 1
22 7
1102 2
190 0
14 3
918 1
851 11
455 11
656 1
1112 15
57 1
581 7
1218 33
1063 10
789 36
277 4
1189 6
15 4
584 12
18 9
185 6
823 34
63 17
177 2
272 11
351 75
291 24
311 2
1215 0
477 34
610 6
60 11
314 7
52 7
367 19
186 7
755 15
481 4
848 63
881 11
325 22
873 7
87 1
986 33
1219 6
273 11
474 1
265 7
998 7
37 0
212 1
3 7
871 82
349 6
140 12
341 2
1065 33
998 43
205 78
352 11
949 1
1104 24
1077 7
823 11
204 33
478 7
291 1
82 7
1211 7
216 7
425 1
826 16
249 4
477 11
1074 1
428 6
375 0
1077 43
272 24
386 9
177 15
75 4
1055 24
477 47
295 7
724 4
73 43
858 4
462 4
25 3
561 126
985 45
1165 12
200 4
1070 3
192 0
85 17
1131 19
2 19
816 7
203 9
1123 15
337 9
169 16
323 74
160 47
758 2
246 7
903 11
184 32
298 17
245 11
633 7
1021 3
845 6
154 9
778 16
979 6
333 11
226 34
385 21
245 47
63 7
823 24
123 21
720 11
1062 40
709 2
1105 2
458 11
1108 7
846 7
60 1
188 7
972 3
1172 28
367 9
857 16
963 34
902 24
10 0
788 2
324 47
713 8
1069 21
671 11
275 11
617 40
690 24
1092 4
32 24
184 9
566 74
231 4
681 61
808 16
1001 2
14 6
96 45
169 29
1176 3
295 105
864 33
287 21
488 11
352 1
876 7
507 24
226 11
823 1
480 7
1240 24
1043 4
310 4
397 9
826 6
477 1
268 7
154 22
556 2
489 12
6 7
963 11
385 34
1137 47
305 11
720 24
210 2
1036 1
344 2
740 2
610 9
879 17
1039 6
690 1
481 7
85 7
44 6
31 36
253 0
788 15
219 7
807 28
2 9
431 6
1115 1
652 11
169 6
120 1
1249 1
966 21
327 34
903 1
507 1
298 7
16 29
24 33
245 1
1001 15
1042 16
325 110
28 3
162 3
435 12
750 24
382 6
173 12
811 3
508 2
291 4
123 11
277 69
875 24
1244 7
324 1
115 7
249 7
511 7
878 29
596 51
670 0
388 22
985 12
260 16
39 17
199 6
815 9
305 24
1103 4
157 9
933 1
1088 24
1061 7
537 1
502 43
275 1
66 7
891 4
200 7
13 1
715 7
35 19
713 83
150 6
236 9
766 9
1061 43
276 2
913 28
267 33
1195 6
308 34
287 11
1220 36
925 2
488 1
279 7
715 43
842 4
928 7
1042 29
9 3
1062 7
1137 1
248 19
1201 22
811 16
1221 0
206 22
321 9
415 16
540 47
104 11
701 1
305 1
761 15
867 33
471 33
1087 36
879 7
1221 36
617 7
180 6
568 2
809 28
1111 21
628 16
51 4
138 9
43 0
935 24
680 63
586 19
357 47
238 96
1183 9
652 1
1 3
872 4
335 28
422 33
434 7
822 3
841 16
1251 0
445 16
351 9
76 33
623 22
521 11
385 1
627 29
9 16
1043 7
856 1
259 11
229 19
773 3
81 4
792 16
878 19
784 12
388 12
293 3
354 19
218 9
823 89
373 32
1171 12
1122 7
271 21
472 11
860 7
464 7
160 4
502 33
1235 33
1207 51
1227 29
638 43
294 4
32 4
4 22
829 19
252 7
567 19
1183 22
369 34
677 7
194 2
1247 43
111 4
540 1
217 22
768 45
237 0
1243 9
69 7
1149 2
1190 3
281 6
141 32
206 12
803 2
890 7
939 12
212 92
259 24
1057 4
324 4
1236 6
908 24
290 11
859 19
491 1
1015 7
711 4
502 10
408 3
494 6
31 16
1246 19
628 6
23 12
232 6
366 6
338 24
224 2
755 47
1015 43
987 24
369 11
1102 11
275 4
1121 24
126 24
13 4
441 36
495 7
273 43
99 7
372 22
49 6
190 45
68 19
665 9
882 7
571 2
175 2
582 11
946 28
783 1
623 12
320 11
521 1
655 1
50 7
687 33
364 17
1056 16
1234 24
162 68
1221 3
173 77
388 2
354 9
1151 24
1171 2
472 1
558 4
900 33
323 21
524 11
912 7
475 6
4 12
232 19
273 20
965 19
386 77
205 2
567 9
1250 2
505 34
988 2
1 6
451 63
391 12
745 15
536 21
509 4
1220 16
1125 7
247 4
729 7
266 17
903 43
467 7
98 24
68 32
961 21
1181 24
80 6
805 2
1068 3
597 9
825 16
502 0
743 63
293 6
1132 24
1246 9
72 7
159 12
681 8
1163 11
189 34
767 11
369 1
410 2
497 7
524 24
885 3
327 4
1239 6
151 7
581 6
285 7
277 3
497 43
980 11
15 3
502 121
919 1
1098 3
844 7
58 1
573 1
364 7
1190 6
61 6
490 3
281 9
1214 34
19 9
326 17
923 7
1097 43
574 2
1109 17
95 4
323 11
577 7
176 78
315 7
1026 19
657 36
1227 9
831 9
622 15
4 2
45 3
232 9
56 12
1090 40
116 63
1082 36
371 24
391 2
410 15
603 1
308 4
140 11
737 1
1220 6
266 7
352 10
277 16
801 22
478 6
269 12
866 2
1002 12
7 12
322 24
342 2
133 8
165 40
353 11
489 21
991 2
385 43
345 7
110 24
83 7
1102 135
29 36
143 21
479 7
209 3
295 6
33 6
1226 21
52 19
421 2
817 2
555 2
167 6
177 50
378 40
566 11
492 62
558 7
371 1
505 1
296 7
242 36
831 22
502 75
1070 38
265 19
372 2
204 9
1001 24
275 69
140 24
113 7
509 7
247 7
173 21
1112 40
1158 7
896 7
847 2
227 28
496 73
268 29
489 34
112 47
595 15
386 21
485 0
713 7
323 1
106 3
147 4
200 16
273 0
1051 2
1185 2
1057 82
231 3
22 9
169 28
725 17
926 7
953 24
617 75
140 1
1060 7
402 1
352 0
801 12
633 19
15 6
269 2
853 22
7 2
1214 1
18 11
173 34
743 7
489 11
353 1
177 4
492 16
311 4
143 11
303 0
94 6
626 16
477 36
819 2
257 33
314 9
1226 11
52 9
207 32
804 22
481 6
568 11
983 24
1138 47
415 61
10 12
325 68
367 21
2 8
390 4
442 51
516 0
74 33
1059 19
254 0
45 6
86 7
32 36
474 3
37 2
212 3
808 28
781 11
1169 7
538 24
967 21
1195 28
162 2
173 11
561 7
165 7
299 7
1077 9
82 9
994 11
249 6
1074 3
268 19
165 43
6 19
386 11
815 8
378 7
284 0
807 4
325 1
941 4
108 3
1207 11
724 6
85 19
200 6
454 2
723 47
192 2
807 40
2 21
1196 1
203 11
337 11
934 1
209 91
538 1
314 107
966 33
369 43
1112 7
70 12
801 2
1042 28
1062 6
853 12
322 4
751 1
254 98
542 7
978 43
165 20
280 7
489 1
173 24
1233 4
906 24
716 43
1138 1
929 7
492 6
238 10
921 3
143 1
647 29
249 19
194 83
1108 9
804 12
367 11
964 1
359 7
1005 2
702 1
10 2
485 3
157 21
868 33
281 87
356 1
188 45
93 36
200 19
126 33
1198 24
97 6
184 11
1017 12
203 24
89 2
518 36
1001 4
967 11
435 1
173 1
1093 7
897 32
823 3
713 131
77 33
310 6
397 11
1043 6
666 19
28 28
1046 11
556 4
1221 12
648 1
1172 7
321 21
1118 36
386 1
910 7
164 37
124 1
902 3
230 19
605 45
470 0
1248 2
253 2
481 9
85 9
609 15
809 40
1037 47
628 28
51 16
989 7
2 11
620 24
203 1
358 24
1123 7
337 1
901 43
1183 21
590 1
287 0
78 6
233 29
70 2
245 3
1210 11
351 21
1148 36
853 2
154 1
1077 12
823 16
332 7
204 87
238 0
477 16
81 16
133 63
367 1
408 2
815 11
191 4
325 4
1171 24
1150 1
807 7
108 6
1103 6
149 7
860 19
323 43
369 10
825 61
160 16
106 45
294 16
335 17
495 6
66 9
233 6
24 12
184 1
1229 1
673 12
296 62
142 4
966 36
236 11
362 7
677 19
496 7
309 1
100 7
925 4
548 17
226 3
499 12
708 6
245 16
1243 21
397 1
572 2
1095 6
355 4
187 11
784 1
342 34
321 11
1221 2
125 36
313 7
305 3
970 11
62 16
188 12
483 9
502 22
221 9
354 44
4 11
601 1
788 7
735 1
566 43
130 7
275 16
476 6
1228 19
643 3
16 21
567 44
787 47
351 11
264 6
1034 4
1200 36
141 21
206 1
385 3
164 4
110 33
156 0
349 86
764 36
985 4
354 21
1205 7
305 16
836 24
574 24
943 7
373 34
157 1
464 9
1088 16
369 0
160 6
610 63
503 0
335 7
327 3
547 43
567 21
1204 47
1049 24
768 11
35 11
236 1
894 7
502 120
140 33
582 0
111 6
152 7
266 29
217 24
1243 11
250 21
961 33
866 24
1001 69
847 11
886 2
376 17
759 47
27 12
187 1
342 24
415 8
321 1
795 0
856 16
164 17
324 6
1057 6
365 7
62 6
103 7
491 3
95 3
1079 24
502 12
60 45
400 1
984 21
224 4
1049 1
358 4
558 29
786 36
577 42
1061 12
182 7
787 1
190 11
316 7
953 33
96 4
999 0
810 21
924 6
46 3
715 12
520 2
217 1
372 24
285 19
277 15
169 73
571 4
999 36
604 1
791 7
141 11
737 36
92 6
529 7
1212 0
133 7
521 3
467 32
950 0
1170 3
258 11
330 63
8 12
209 2
19 21
616 11
407 17
1213 1
790 47
220 11
354 11
608 7
386 43
983 33
1171 4
1003 11
1221 45
84 7
95 16
819 47
296 6
724 38
1227 21
126 3
641 40
205 4
273 22
1030 1
1185 24
567 11
171 11
1250 4
995 43
231 25
559 7
768 1
163 7
337 43
685 3
698 22
1154 36
509 6
897 2
247 6
266 19
467 9
646 11
432 51
1243 1
847 1
1002 24
269 24
585 1
1022 2
175 17
250 11
141 24
1193 0
18 33
1025 7
239 1
30 7
1110 2
877 29
164 7
364 32
1159 7
82 54
197 4
122 10
805 40
323 0
114 6
1235 2
502 2
23 4
976 7
367 4
968 3
714 7
296 19
1102 3
497 9
725 16
1060 6
851 12
205 17
140 0
1189 7
403 1
502 123
927 7
7 1
194 7
227 4
569 33
173 33
601 102
790 1
364 9
707 3
498 9
994 33
281 11
805 17
19 11
616 1
1226 10
354 1
178 4
83 32
311 39
485 12
95 6
1235 15
106 15
147 16
1227 11
221 2
273 12
224 7
474 2
171 1
231 15
391 4
136 43
1169 6
203 33
223 11
698 12
603 3
349 7
300 2
46 6
360 16
79 3
352 12
561 6
486 12
90 12
250 1
866 4
853 34
1195 63
208 4
1033 1
342 4
428 7
1220 93
562 7
125 6
877 19
166 7
177 16
888 28
122 0
25 4
253 11
1246 1
440 17
641 7
178 17
775 7
815 43
558 9
808 4
553 43
390 16
2 20
599 10
1048 22
147 29
463 6
254 12
808 40
1218 24
372 4
854 7
204 11
129 17
1241 7
496 39
18 0
287 45
152 0
393 63
280 6
1105 3
82 21
805 7
752 1
543 7
1066 11
838 4
367 10
1192 7
1143 2
702 0
493 6
10 1
189 3
713 9
941 16
116 19
610 33
1248 24
234 11
25 17
986 24
1227 1
568 36
273 2
748 3
1177 0
968 6
1009 7
22 11
182 0
1183 43
14 7
955 36
698 2
371 16
140 3
360 6
287 22
352 2
486 2
204 24
527 3
713 130
948 33
7 4
1222 7
288 103
227 7
542 19
146 19
1086 3
394 4
573 6
660 11
63 21
386 0
291 28
311 6
176 47
564 43
314 11
1207 0
1039 7
52 11
649 1
690 2
1119 36
178 7
378 32
607 4
211 4
553 33
485 15
1123 6
941 29
1249 2
120 2
516 2
254 2
891 28
86 9
809 75
864 11
998 11
1038 47
393 17
990 7
204 1
982 3
1001 16
686 4
424 4
416 0
162 4
590 36
778 7
341 6
154 0
333 2
79 6
515 42
1245 4
561 9
165 9
385 12
328 36
82 11
458 2
845 33
1066 1
857 7
375 4
321 33
394 17
158 6
595 7
177 19
1172 19
587 3
541 36
721 3
325 3
188 34
25 7
454 4
85 21
1206 17
1070 7
192 4
816 11
808 7
1237 4
22 1
546 7
209 93
150 7
1020 6
800 3
423 16
864 24
1187 3
287 12
496 6
1112 9
998 24
499 11
445 40
9 4
833 36
397 0
625 7
967 36
1013 3
1054 4
363 7
489 3
165 22
480 34
594 19
63 11
324 15
846 11
477 28
610 0
838 7
442 7
188 11
52 1
180 7
354 43
10 4
1183 10
671 15
275 15
932 19
172 2
997 36
393 7
24 24
1050 11
55 11
169 33
256 1
47 7
731 2
959 9
750 15
791 16
173 3
925 16
876 11
1077 1
385 2
131 6
1211 1
82 1
606 7
337 111
826 10
1214 6
268 11
624 24
993 7
260 7
1172 9
207 1
386 3
1218 125
305 15
815 0
553 0
819 7
122 42
605 47
1248 4
852 4
85 11
1005 17
1206 7
682 1
419 36
1152 36
211 7
24 1
1008 22
640 4
189 68
168 45
296 51
161 6
275 28
267 24
536 32
810 43
287 2
715 34
916 24
499 1
719 4
28 7
154 3
141 33
187 0
811 7
415 7
594 9
112 6
104 2
1110 11
1244 11
552 12
478 63
1236 7
867 24
449 36
21 4
281 43
54 1
712 1
502 11
293 17
354 33
723 16
628 7
210 19
807 9
1016 3
366 7
754 3
323 45
1053 7
267 1
240 47
422 24
487 4
829 33
715 11
184 3
567 33
653 36
841 7
76 24
787 36
1229 3
579 7
55 1
445 7
453 11
1000 0
783 2
529 6
480 1
9 7
438 4
69 21
289 24
355 6
396 7
227 49
6 1
1221 4
575 9
605 1
1004 6
792 7
50 44
1130 2
734 2
693 1
848 24
472 2
483 11
825 40
871 7
502 24
1235 24
818 1
85 1
609 7
628 20
221 11
347 7
735 3
149 22
96 16
169 0
1 7
495 21
468 4
641 75
1084 7
46 15
434 11
1031 1
822 7
339 2
560 7
68 33
1243 0
256 4
395 19
26 36
783 15
214 7
18 32
133 19
521 15
152 32
1064 34
277 63
50 21
1095 21
1068 4
8 24
1221 17
388 16
985 6
293 7
502 1
427 7
31 7
240 1
346 19
1171 16
84 19
243 6
1163 12
377 6
464 11
95 28
369 2
122 45
168 12
852 7
221 24
1227 33
901 12
965 33
715 1
24 4
252 11
205 16
453 1
977 7
1250 16
232 33
236 3
1239 7
285 8
96 29
1221 138
1113 47
194 6
502 122
582 2
1098 4
152 9
352 34
58 2
1232 4
1010 40
1056 7
277 40
687 24
61 7
8 1
1193 12
19 10
676 51
354 0
259 28
145 6
942 21
533 2
164 19
271 2
262 33
900 24
282 11
806 17
483 1
1007 7
274 7
617 1
221 1
12 7
1227 10
494 10
441 4
224 6
182 9
88 2
1094 11
107 15
725 28
1220 7
205 29
434 1
225 7
1231 16
285 21
486 11
612 7
812 32
175 6
395 9
50 11
364 21
688 2
376 32
699 11
605 4
691 7
209 4
496 97
825 7
1079 3
11 19
167 7
1246 0
1171 6
767 2
464 1
255 7
505 2
475 10
147 28
1113 1
53 21
4 16
254 11
205 6
68 0
337 45
1115 47
349 19
884 34
266 21
1117 7
467 11
1022 4
281 0
27 4
805 6
342 16
19 0
1242 7
165 54
30 9
192 33
364 34
82 56
680 11
626 40
1068 7
209 17
323 2
806 7
1235 4
106 4
494 0
1018 6
72 11
1037 19
273 1
64 7
406 36
1238 9
56 3
558 21
190 3
390 28
1228 1
1059 43
140 2
99 1
1011 3
319 4
305 106
265 33
1231 6
998 33
285 11
184 45
969 6
1010 7
277 7
486 1
15 7
444 4
718 15
141 3
18 12
911 1
247 21
364 11
565 1
465 63
303 1
8 4
436 36
0 0
523 4
701 47
566 2
1109 21
577 11
941 28
87 4
315 11
912 1
33 33
623 127
254 1
45 7
736 4
171 3
212 4
391 6
914 47
182 12
14 19
1216 3
215 9
349 9
266 11
467 1
258 7
895 33
1083 4
478 10
82 10
150 65
907 7
604 6
771 3
166 9
991 6
345 11
386 12
291 40
680 1
21 36
209 7
295 10
1074 40
127 17
1120 7
724 7
1067 1
25 6
1173 19
850 3
1184 28
1070 6
170 15
815 45
599 12
296 11
209 92
288 7
497 1
234 36
1059 33
200 43
373 114
883 36
1112 8
1071 7
212 17
667 3
372 6
413 7
592 9
504 125
162 16
1241 9
1147 2
18 2
154 12
770 15
561 21
272 4
217 68
291 17
445 75
500 11
492 7
29 17
1022 7
143 2
208 19
1214 28
194 84
1014 3
1055 4
257 24
260 29
743 34
268 33
321 45
991 19
576 6
60 4
406 3
914 1
336 24
839 7
187 81
74 24
985 61
85 33
273 4
674 19
1185 6
325 51
781 2
231 7
1229 12
14 9
865 1
287 24
998 36
173 2
352 4
298 33
823 4
478 0
82 0
606 6
1002 6
625 19
256 36
162 29
1054 16
826 9
477 4
257 1
911 4
397 12
260 6
783 47
648 2
811 29
272 17
386 2
83 1
565 4
1036 4
303 4
1215 6
523 7
610 12
1207 2
1248 3
261 7
127 7
576 19
1058 22
387 3
473 6
378 34
211 6
2 12
599 2
337 2
169 9
1249 4
966 24
1081 11
549 1
1032 6
682 36
287 1
474 7
420 36
1199 3
212 7
1218 16
393 19
903 4
264 17
96 61
812 2
162 6
550 2
173 15
561 11
279 33
165 11
917 24
925 28
896 1
1232 36
291 7
870 92
277 72
28 42
238 1
666 33
826 22
1054 29
29 7
1074 7
678 7
155 3
260 19
898 47
166 12
367 2
561 96
713 1
504 7
135 24
450 36
81 53
933 4
765 11
879 33
868 24
25 9
200 10
412 9
1123 21
222 28
1229 2
169 22
369 47
926 1
530 1
1195 9
447 3
1112 11
279 10
830 33
111 17
226 4
1096 3
842 7
77 24
397 2
590 51
1160 24
743 1
272 7
701 4
921 7
439 4
1055 7
262 42
610 2
651 3
442 9
785 3
1194 22
389 3
408 16
85 0
305 40
10 6
51 7
807 21
2 2
366 19
149 21
1183 12
168 34
518 4
1134 7
476 7
864 3
13 17
118 33
602 3
393 9
171 45
1042 9
264 7
563 11
865 4
898 1
716 24
165 1
226 17
823 7
1250 74
1085 7
519 4
909 10
385 4
1244 0
257 4
1035 6
477 7
81 7
40 6
396 19
260 9
27 36
815 2
848 36
553 2
1171 15
962 21
168 11
1248 6
852 6
920 24
502 36
160 7
294 7
765 1
200 0
1246 45
32 7
1206 9
23 38
715 0
1061 36
96 28
744 63
381 11
367 113
287 4
810 45
273 69
582 1
70 6
111 7
320 1
17 0
285 43
499 3
256 16
853 6
195 6
287 89
1098 39
321 2
258 62
1057 7
324 7
271 1
753 4
62 7
122 21
491 4
188 3
1194 12
293 19
628 9
534 2
1171 28
366 9
157 15
1008 1
149 11
746 1
484 1
275 7
335 21
13 7
401 3
205 28
506 19
16 12
351 2
68 22
362 11
1000 2
697 1
488 7
521 4
1232 16
226 7
741 7
259 4
875 7
826 2
396 9
187 15
825 6
206 28
513 36
354 12
305 7
1162 36
954 7
168 1
1088 7
95 17
684 3
475 9
12 19
829 12
701 92
51 10
130 11
681 34
1 9
779 11
1167 7
335 34
1073 0
932 24
468 6
1220 19
119 1
339 4
97 62
285 33
560 9
961 24
343 11
248 2
80 9
7 25
529 21
1193 1
18 34
198 1
353 24
668 36
856 7
460 7
1244 3
82 55
156 4
1062 75
605 16
209 16
73 6
122 11
456 36
985 8
1213 15
636 3
923 33
1246 12
943 11
338 17
681 11
626 75
1069 7
149 1
369 4
160 10
852 9
335 11
536 1
327 7
1019 6
24 6
16 2
163 21
277 6
760 11
297 21
961 1
698 36
362 1
502 124
1060 43
582 4
615 1
320 4
152 11
312 0
426 22
144 7
1232 6
532 3
478 32
270 3
281 12
342 28
19 12
354 2
177 40
365 11
566 1
357 7
271 4
303 36
122 24
95 7
491 7
892 22
920 4
502 16
699 36
1186 11
1227 12
221 3
452 15
243 21
171 2
567 2
56 15
390 40
295 68
182 11
337 34
88 4
779 1
516 36
96 8
308 7
1175 1
108 62
296 33
46 7
57 16
258 6
646 2
250 2
183 12
780 2
411 19
612 9
15 19
395 11
992 1
18 24
125 7
259 7
847 28
1116 36
8 16
122 1
209 6
605 6
597 2
1226 24
608 11
354 15
367 34
272 62
964 24
809 1
547 1
378 43
975 33
681 1
338 7
505 4
87 16
288 6
725 7
335 1
1219 21
414 2
246 9
1071 6
862 12
285 0
212 16
371 40
760 1
68 2
1188 33
505 40
599 47
163 11
182 24
18 1
569 24
247 10
152 1
668 3
1001 63
364 0
102 0
376 11
994 24
281 2
27 6
1193 4
19 2
30 11
763 11
508 50
869 29
701 36
889 7
929 43
189 4
827 32
135 33
1215 28
819 28
323 4
295 22
106 6
147 7
858 19
1235 6
1246 15
367 47
1238 11
359 43
976 11
580 11
1150 47
117 21
22 12
1102 7
706 7
182 1
140 4
360 7
266 0
57 6
277 9
1001 40
961 4
15 9
55 45
162 28
395 1
919 7
1127 36
1233 17
488 49
1105 17
345 0
63 22
177 7
823 39
565 3
311 7
257 36
303 3
262 2
805 21
1006 11
314 12
610 11
448 12
165 69
649 2
784 47
52 12
367 24
815 34
84 1
189 17
599 1
390 7
524 7
610 47
650 3
273 16
474 6
735 47
1009 21
204 2
1123 43
231 19
383 4
1001 17
215 11
812 1
121 4
349 11
140 17
509 0
341 7
946 1
683 36
603 7
352 16
467 3
291 6
82 12
28 41
216 12
813 2
1054 28
1074 6
166 11
554 7
245 75
292 7
238 36
1036 16
713 0
610 24
1039 21
630 2
167 12
72 3
200 9
310 7
1131 24
371 7
580 1
505 7
109 7
497 3
288 9
880 33
1249 16
934 4
169 21
221 68
85 58
1146 3
59 6
212 19
1104 6
1230 2
584 7
948 24
530 36
531 1
322 7
1233 7
18 4
1179 36
979 11
489 4
971 7
272 6
63 12
709 7
835 3
143 4
1055 6
314 2
610 1
583 47
1226 4
1172 33
186 2
568 4
1184 7
1130 36
398 1
553 24
922 7
189 7
2 1
485 6
933 16
356 4
1039 34
234 15
25 21
872 6
273 6
200 22
534 47
231 9
1169 0
1001 7
215 1
483 81
349 1
435 4
132 3
173 4
561 0
165 0
352 6
823 6
131 7
519 3
82 2
9 18
1222 11
826 11
229 21
1214 7
477 6
845 24
469 2
6 12
944 3
321 24
903 114
386 4
1078 3
815 1
553 1
295 2
1207 4
481 12
641 1
85 12
568 17
599 4
203 4
337 4
423 7
169 11
369 36
161 7
340 9
932 33
367 112
830 22
224 63
212 9
1163 82
499 2
768 47
1030 47
245 6
1241 1
154 4
865 16
173 17
1106 42
374 7
205 86
508 7
63 2
212 94
291 9
1244 12
712 2
188 2
857 11
179 33
1058 1
595 11
795 36
1192 1
105 4
259 62
796 1
534 1
1103 9
325 7
1008 0
713 3
754 4
1036 19
317 3
1202 51
275 6
690 19
1072 21
200 12
13 6
580 4
184 4
1171 63
936 17
1009 1
318 4
747 1
351 1
169 24
1229 4
967 4
530 3
134 3
799 11
1187 7
142 7
925 7
488 6
507 19
917 3
1240 19
633 15
504 16
397 4
625 11
229 11
826 1
248 24
256 28
960 1
564 1
395 43
355 7
6 2
489 7
1172 0
177 0
50 45
1056 54
143 7
610 4
1088 6
388 40
576 11
481 2
85 2
1057 55
2 4
366 21
727 0
222 7
586 24
168 36
169 1
1 8
106 61
294 32
703 51
172 6
24 28
393 11
298 2
150 24
264 9
1042 11
1034 7
780 11
248 1
1168 7
946 43
173 7
206 4
385 6
446 22
278 29
875 19
229 24
511 2
1244 2
249 2
376 43
81 9
281 34
290 3
1033 47
1221 18
1194 1
878 24
293 8
522 17
354 24
723 7
815 4
1111 3
1171 17
553 4
157 4
680 45
1069 6
149 0
95 29
464 12
369 3
475 21
1206 11
674 1
715 2
829 24
366 34
567 24
16 1
453 2
150 1
639 129
182 33
202 11
362 0
153 6
1195 1
496 0
716 3
285 45
76 51
560 21
28 11
69 12
229 1
666 2
187 4
811 11
360 75
321 4
133 33
415 11
145 7
856 19
929 3
324 9
848 15
639 21
271 3
281 47
208 63
1174 36
1006 43
483 2
491 6
293 21
4 4
628 11
177 75
138 4
232 11
397 115
157 17
358 7
700 36
304 36
1049 4
1061 15
366 11
275 9
308 6
13 9
1133 3
393 1
821 33
244 21
217 4
390 75
1042 1
68 24
183 11
351 4
134 6
395 10
301 3
1166 36
320 16
513 2
259 6
50 12
277 54
262 11
832 47
187 17
388 7
776 3
1045 11
514 3
305 9
1171 7
271 16
397 92
262 47
1088 9
295 44
464 2
168 3
502 28
475 11
1227 24
126 6
609 11
4 17
965 24
205 7
232 24
252 2
601 7
1206 1
35 4
768 4
1250 7
458 107
988 7
1 11
247 9
1185 63
581 34
1023 1
814 7
217 17
627 1
847 4
478 21
69 2
371 75
813 11
80 11
1201 7
26 40
281 1
1193 3
19 1
415 1
342 17
1236 1
840 1
103 0
262 24
293 11
167 21
31 11
555 17
232 1
756 7
23 7
366 1
338 19
1144 3
669 2
628 1
987 19
1102 6
87 28
1121 19
524 29
851 15
843 11
1231 7
977 11
16 4
445 1
236 7
269 4
148 43
832 1
141 4
623 7
320 6
361 7
1224 4
1056 11
1001 75
847 17
707 6
658 1
262 1
699 2
1128 36
878 4
562 33
354 4
440 7
373 17
460 22
137 6
186 11
1151 19
1003 4
263 2
873 11
323 16
845 92
819 40
623 128
1026 24
806 21
475 1
524 6
213 1
4 7
433 4
171 4
190 17
391 7
1102 19
1 1
505 29
733 36
308 9
463 32
349 10
99 15
140 16
957 9
352 15
467 2
277 21
250 4
478 11
269 17
866 7
384 4
1209 1
1181 19
813 1
208 7
603 42
604 7
342 7
1212 6
334 3
730 3
467 38
259 9
345 12
991 7
1076 2
209 19
8 18
899 40
208 43
295 11
209 8
825 11
817 7
52 24
1132 19
1246 4
186 24
167 11
501 36
555 7
367 36
72 2
1192 33
159 7
295 47
505 6
524 19
631 2
85 57
205 10
246 11
634 7
265 24
171 17
325 75
581 1
977 1
22 37
1021 7
26 7
352 28
258 21
627 4
1056 1
847 7
250 17
364 2
281 4
194 85
945 133
314 1
19 4
1180 36
448 1
535 6
365 3
680 15
712 47
672 11
846 47
323 6
798 7
33 24
106 8
1227 4
53 2
187 82
265 1
56 7
1131 36
1185 7
190 7
390 32
619 4
182 3
934 16
497 15
1135 6
349 0
140 6
1051 43
1044 4
393 43
895 24
277 11
269 7
55 47
633 24
216 1
7 7
47 43
322 19
436 4
227 10
18 16
133 3
395 3
193 17
353 6
226 51
782 3
91 6
177 9
83 2
606 43
1223 11
691 1
1215 7
295 1
1161 36
1207 3
260 43
394 43
167 1
1232 96
253 4
568 16
1172 45
481 11
1003 7
607 7
390 9
296 2
933 28
307 11
25 33
1059 24
200 34
37 7
674 33
808 33
117 36
600 4
204 4
231 21
150 33
1001 19
820 7
739 19
370 36
162 7
435 16
550 3
341 9
247 2
165 12
1031 47
500 2
63 1
250 7
417 4
899 7
1242 1
846 1
268 24
249 11
1066 4
6 24
326 2
521 61
63 37
501 3
774 12
177 22
1192 0
116 12
1248 17
1066 40
234 4
576 33
25 10
1058 36
85 24
200 11
399 17
588 7
1225 33
192 7
580 3
366 43
203 16
1196 6
337 16
974 42
926 2
530 2
85 60
496 9
675 11
581 4
1063 7
453 47
413 11
614 1
298 24
1062 11
1013 6
322 9
865 28
193 7
291 21
492 11
238 15
1054 43
430 36
249 24
314 4
610 3
260 33
60 8
1066 17
568 6
755 12
742 42
10 7
364 90
1103 21
2 3
1022 96
1141 47
222 6
724 24
147 12
388 75
1040 1
777 36
482 2
86 2
347 43
97 11
184 16
231 11
203 29
168 71
215 3
160 67
570 51
134 15
173 6
165 2
279 24
434 47
82 4
28 33
397 16
907 1
666 24
248 36
40 7
952 9
260 10
214 43
174 7
1172 12
374 32
272 21
386 6
207 4
992 45
177 12
210 9
116 2
230 24
295 4
610 16
879 24
1248 7
502 37
253 7
293 43
682 4
200 1
1070 0
2 16
599 6
681 45
203 6
1028 3
337 6
852 43
314 102
557 9
335 45
85 59
716 2
830 24
70 7
204 7
499 4
1062 1
853 7
457 7
591 7
542 2
205 88
206 16
321 3
998 102
291 11
77 51
492 1
626 1
1141 1
81 21
678 11
1066 7
670 7
188 4
556 22
890 47
408 7
367 6
1111 15
1016 6
157 16
1122 24
108 11
1142 2
149 12
705 1
765 15
234 7
757 11
891 11
1092 1
487 7
1198 19
393 0
24 17
118 24
567 36
613 3
1050 4
203 19
1229 6
236 16
351 3
1102 51
55 4
677 24
1228 47
697 2
716 15
876 4
111 21
1232 17
909 1
842 11
58 15
1042 36
1050 40
614 4
176 7
268 4
260 0
6 4
206 29
321 16
1221 7
164 32
1057 21
921 11
962 12
819 0
1047 7
1039 3
85 4
997 6
51 11
989 2
1123 2
358 19
350 15
169 3
738 11
1 10
598 0
912 47
267 17
864 7
904 43
1228 24
381 2
468 7
924 21
253 82
380 43
244 33
808 75
285 34
1197 36
88 51
940 2
162 0
248 3
811 0
415 0
890 1
1129 17
1244 4
1190 33
626 7
81 11
605 17
469 7
1079 16
388 19
502 4
207 7
461 3
20 1
628 0
1056 69
807 2
271 28
157 6
149 2
1061 4
477 96
160 11
502 40
294 11
494 36
32 11
715 4
24 7
16 3
150 3
1027 127
673 7
1155 47
161 12
111 11
266 34
499 7
1232 7
1178 36
1224 3
50 1
229 3
1190 10
973 12
832 36
27 17
321 6
324 11
42 33
498 47
62 11
659 1
700 2
54 7
1062 89
483 4
502 17
221 4
609 0
837 7
4 6
1018 19
347 0
51 1
829 3
224 9
1091 3
567 3
1 0
267 7
13 11
802 22
916 7
16 16
1050 7
285 24
996 36
351 6
392 7
343 2
80 0
395 12
92 11
247 34
521 8
749 15
855 33
251 4
679 36
867 7
471 7
859 3
122 2
81 1
605 7
388 9
1213 6
293 0
354 16
440 19
809 2
555 6
923 24
836 19
83 47
574 19
558 11
1155 1
692 11
1080 7
160 1
335 2
422 7
368 36
32 1
205 9
171 16
285 1
76 7
22 36
988 9
336 83
308 21
905 11
509 11
46 21
247 11
548 2
635 7
111 1
152 2
331 4
957 21
217 19
1243 6
866 19
498 1
61 0
364 1
235 36
281 3
510 12
1107 2
27 7
247 47
19 3
30 12
259 21
856 11
345 24
326 11
365 2
896 47
62 1
577 1
1194 6
1235 7
502 7
106 7
1246 16
366 3
190 6
296 24
1053 3
335 15
99 4
327 11
1247 17
528 1
802 12
487 0
253 62
266 1
97 43
57 7
372 19
486 4
231 43
194 12
7 6
395 2
133 2
1098 10
627 16
668 17
345 1
50 4
8 7
437 4
939 22
1139 47
19 16
1226 15
354 6
346 2
178 9
975 24
75 33
558 1
1036 40
95 11
296 1
87 7
724 33
483 7
221 7
1227 16
167 36
475 3
4 9
254 4
870 7
37 6
1185 19
539 24
171 6
1169 11
1102 21
1188 24
820 6
934 28
1249 40
308 11
509 1
937 33
1206 78
474 43
38 7
675 33
247 1
467 4
352 17
246 36
687 7
1075 3
679 3
593 0
269 19
7 19
342 9
18 28
393 91
394 19
877 24
30 2
326 1
251 7
888 33
680 4
143 28
418 4
209 10
1242 36
41 17
900 7
589 2
1238 2
701 63
539 1
22 3
893 4
128 21
725 11
188 72
1113 7
497 4
717 7
327 1
851 7
254 17
797 36
65 1
151 4
843 3
388 4
285 4
1063 6
231 33
372 9
581 3
204 16
277 0
502 118
435 28
1139 1
930 7
1056 3
364 4
847 9
842 43
794 3
94 0
805 12
19 6
314 3
52 3
367 15
158 21
63 49
1192 12
386 28
186 3
1089 36
357 1
512 24
485 7
116 24
1055 43
95 1
523 33
577 4
147 11
1227 6
831 6
367 51
25 22
159 22
273 7
756 12
815 61
661 3
968 11
203 28
1014 127
14 12
1094 7
698 7
160 66
484 47
410 12
140 8
266 4
561 1
352 7
486 7
1096 16
269 9
82 3
216 3
7 9
824 2
542 24
146 24
697 47
166 2
394 9
345 4
285 102
177 11
565 7
311 11
1036 7
303 7
249 36
1215 9
295 3
209 0
429 3
470 4
52 16
167 3
253 6
1124 7
387 6
178 12
10 19
607 9
2 15
873 16
390 11
296 4
1028 2
652 17
1249 7
880 24
120 7
725 1
254 7
818 49
998 16
24 39
903 7
849 36
204 6
196 2
221 95
500 4
291 10
1002 22
1211 16
238 4
82 16
637 9
260 22
415 45
811 45
394 22
326 4
272 33
755 1
1172 24
177 24
1066 6
324 43
807 11
713 4
295 16
1248 19
147 1
234 6
25 12
663 3
682 16
797 3
723 54
1070 12
192 9
22 6
14 2
758 11
664 4
360 1
876 3
1096 6
405 9
768 61
101 6
182 80
256 29
162 22
322 11
1222 2
268 3
1172 1
594 24
321 15
709 11
177 1
701 7
1043 36
1089 3
311 1
698 118
523 0
1047 6
314 6
180 12
628 22
788 11
364 92
10 9
1122 36
1062 134
390 1
1123 1
914 7
1048 7
652 7
169 2
1100 17
682 29
172 7
32 33
998 6
306 7
252 36
212 0
694 3
518 43
223 9
861 0
1175 47
181 12
905 43
561 4
165 4
205 77
385 7
1211 6
82 6
519 7
465 36
257 7
469 6
556 11
179 24
595 2
1078 7
277 101
1111 4
807 1
344 11
941 1
545 1
336 7
281 71
470 7
503 4
85 16
200 3
1206 12
286 6
1070 2
568 21
2 18
786 63
423 11
150 2
161 11
67 4
153 7
287 7
1112 4
279 3
499 6
17 3
760 47
894 47
162 12
811 12
500 7
238 7
875 33
230 3
887 7
54 6
838 2
442 2
576 2
359 4
628 12
250 97
325 11
525 36
1008 4
526 1
586 15
1088 33
369 17
829 38
393 2
1001 1
1042 2
295 104
161 24
276 11
181 2
791 11
171 74
863 36
499 19
9 12
606 2
1062 16
867 6
268 6
81 0
6 6
1221 9
1172 4
259 43
1122 3
168 4
442 15
1194 28
160 0
617 16
294 0
85 6
126 7
818 6
191 24
1206 2
810 2
211 2
989 4
935 33
1155 36
423 1
947 7
1 12
88 17
1081 7
894 1
267 19
864 9
273 62
434 16
339 7
325 109
426 12
331 3
36 6
16 28
811 2
898 7
133 24
112 1
198 4
324 0
115 6
848 6
1236 2
176 22
773 12
867 19
156 7
290 7
806 9
544 3
985 11
502 6
589 11
494 2
354 28
361 67
628 2
346 24
240 6
1171 21
157 8
243 11
84 24
149 4
464 16
765 7
168 17
578 1
87 29
275 0
1061 6
369 7
422 19
13 0
495 3
24 9
821 24
1136 36
1250 21
713 82
404 1
96 34
142 1
362 4
791 1
582 7
925 1
529 1
320 7
1232 9
58 7
9 2
237 9
270 6
490 9
281 15
1004 1
259 33
499 94
164 24
848 19
962 4
707 43
908 33
1068 22
263 3
54 9
209 32
502 19
475 2
1227 15
177 79
51 3
1217 1
224 11
130 4
358 11
1036 75
366 15
96 11
1 2
476 3
367 96
1220 12
38 6
560 2
277 22
15 22
866 8
1249 75
563 7
80 2
215 47
247 36
30 1
627 28
50 16
164 1
176 12
908 10
81 3
605 9
122 4
209 9
262 15
388 11
985 1
39 6
723 1
809 4
178 21
1171 11
681 4
464 6
168 7
1226 63
335 4
631 3
221 19
4 21
851 6
205 11
601 11
1227 28
1203 19
768 8
1250 11
285 3
296 49
222 63
1189 1
980 7
1060 36
710 3
1124 137
152 4
98 33
203 86
969 34
69 6
498 3
27 9
1242 12
1193 7
1233 43
958 24
562 24
931 7
448 2
407 1
177 33
364 39
726 132
577 3
323 7
122 17
711 3
502 9
1007 2
1125 137
240 9
53 3
1037 24
23 11
547 17
224 1
124 63
96 1
182 4
410 11
497 16
744 36
348 36
140 7
1220 2
205 24
957 0
1231 11
662 3
212 32
372 21
266 3
277 12
15 12
483 117
