435 40
395 4
1246 139
561 36
259 0
50 6
42 2
834 51
825 2
388 1
173 76
608 4
354 8
1037 1
1192 24
828 7
1171 1
103 17
304 7
390 10
296 3
725 0
1018 24
254 6
736 9
1051 21
205 1
474 9
1250 1
371 33
22 28
915 17
779 7
1208 4
812 4
329 36
517 7
778 11
938 0
266 16
467 6
581 28
695 13
459 2
901 118
48 22
342 11
374 43
722 3
30 4
386 17
83 16
122 7
691 15
25 11
440 24
1173 24
809 7
547 7
493 36
808 11
1196 7
296 16
337 17
497 6
14 1
1188 3
288 12
926 3
1032 21
1171 99
285 6
372 11
277 2
1001 33
15 2
1013 7
113 16
227 1
18 7
361 1
272 9
823 32
1250 99
364 6
459 15
311 0
1089 2
1203 24
1223 2
82 28
720 19
1055 9
228 2
838 11
1226 7
165 62
367 17
964 7
991 24
177 36
178 1
702 7
189 10
315 6
1248 31
356 7
302 36
25 24
53 6
139 9
45 2
1051 11
674 24
808 24
1123 36
1108 136
231 12
168 72
1229 17
698 9
215 4
161 33
349 4
140 10
181 11
778 1
435 7
926 16
750 19
352 9
486 9
499 28
397 17
994 7
257 6
1041 2
645 2
906 43
260 11
857 1
648 7
394 11
991 1
345 6
386 7
728 36
292 0
266 91
63 28
295 5
523 12
1215 11
1207 7
470 6
1153 36
724 2
93 19
253 8
858 2
25 1
200 2
576 24
191 33
1225 24
1204 1
808 1
2 17
599 7
505 0
203 7
337 7
34 6
160 45
1154 0
549 6
254 9
287 6
675 2
372 1
424 11
162 11
759 1
322 0
288 87
59 35
154 7
205 89
165 16
71 9
1145 36
1191 3
291 12
560 57
1157 47
238 6
492 2
257 19
899 11
40 21
637 11
260 24
629 7
394 24
367 7
1192 4
189 0
922 0
1101 2
336 19
283 13
74 19
443 2
253 21
1100 6
200 15
1024 47
1185 1
366 47
184 7
706 3
1229 7
1183 40
1001 0
14 4
1175 36
959 3
119 26
226 9
9 11
793 7
28 24
397 7
853 21
826 4
1046 7
564 4
792 11
260 1
906 33
925 46
177 3
847 63
21 21
1055 12
618 11
610 7
1039 4
956 6
10 11
478 116
366 24
2 7
390 3
169 4
275 22
769 36
192 24
212 2
1210 7
560 11
351 17
28 1
1157 1
1156 36
162 1
248 4
644 4
215 7
382 4
696 51
5 17
165 6
811 1
917 19
823 12
291 2
9 24
28 37
1244 5
257 9
223 96
241 1
375 1
1172 16
199 4
1024 1
815 7
325 0
157 7
271 29
160 12
757 2
192 1
1123 16
203 10
1028 7
150 4
632 7
209 90
677 15
496 3
582 6
111 12
236 43
9 1
77 19
853 11
981 17
1160 19
792 1
583 7
187 7
146 6
321 7
238 9
970 7
859 27
670 11
274 11
1058 7
293 24
448 47
408 11
1091 4
138 7
680 61
512 68
149 16
1183 7
1134 2
275 12
13 12
167 70
286 21
327 22
205 33
393 4
244 24
217 7
1001 3
1042 4
351 7
183 14
1176 4
959 6
173 0
1065 24
368 96
1098 21
1126 3
689 2
1232 21
823 2
1190 24
826 7
772 36
477 2
81 2
639 1
260 4
1221 11
293 1
521 45
1213 7
30 36
951 7
168 6
691 47
920 19
160 2
502 31
1099 21
294 2
1018 33
272 100
32 2
567 17
1164 7
169 7
296 48
779 16
161 3
1227 63
1220 24
507 2
111 2
1240 2
1023 4
277 34
28 4
61 1
248 7
194 36
992 16
415 4
352 64
212 90
1224 30
42 24
605 21
122 16
670 1
274 1
502 8
1140 36
408 1
1186 3
199 7
809 16
628 4
232 4
1016 0
574 33
366 4
157 10
149 6
122 52
275 2
335 16
286 11
327 12
1220 1
642 24
621 1
16 7
1250 23
68 17
611 36
175 0
349 36
141 7
320 9
226 2
1232 11
855 24
278 12
229 7
1190 14
866 33
886 11
281 17
141 43
1221 1
1012 7
19 17
616 7
825 1
173 75
354 7
991 33
608 3
30 26
1045 4
1171 0
305 2
397 85
700 6
1088 2
1215 43
692 2
389 1
475 4
502 21
1227 17
904 1
1038 1
205 0
386 75
702 52
821 3
567 7
171 7
182 16
1 4
497 28
1040 47
468 1
140 19
520 11
426 4
285 28
1251 1
560 4
1042 7
372 33
269 20
411 24
1075 4
1209 4
18 29
30 3
486 54
164 3
859 7
122 6
209 11
114 2
201 7
293 4
1246 7
732 51
288 11
335 6
321 108
327 2
756 36
65 2
232 33
372 10
277 1
288 47
15 1
502 119
254 54
18 6
1098 1
152 6
1232 1
1069 123
1056 4
269 33
1190 4
1022 11
281 7
27 11
227 36
960 36
19 7
762 51
554 22
63 50
83 28
397 75
471 24
75 24
323 9
638 21
1235 11
314 40
106 11
494 7
1227 7
367 52
4 0
232 7
224 3
748 9
189 45
1022 132
873 40
505 22
337 29
570 2
316 6
502 96
308 2
349 3
945 28
937 24
1052 11
1220 4
675 24
352 8
654 1
874 4
183 7
269 10
866 0
478 4
612 4
395 6
133 6
521 2
291 34
888 24
42 4
793 52
311 12
8 11
209 1
825 4
1226 19
1045 7
167 4
649 7
177 48
387 7
775 3
379 3
725 2
288 1
253 43
474 11
1071 1
192 33
628 69
1250 3
191 68
231 24
466 7
988 3
1029 4
14 26
551 2
325 68
926 28
163 6
182 19
383 9
447 30
561 15
486 21
847 0
82 17
310 24
805 3
409 3
155 7
554 12
63 40
680 8
512 15
295 17
523 24
60 34
106 1
147 2
839 1
576 36
190 0
231 1
22 7
968 2
1102 2
14 3
288 14
918 1
864 30
455 11
656 1
1112 15
789 36
581 7
1218 33
1063 10
277 4
1189 6
15 4
584 12
18 9
185 6
272 11
823 34
177 2
291 24
351 75
311 2
63 17
1215 0
477 34
314 7
610 6
60 11
52 7
367 19
481 4
881 11
325 22
873 7
87 1
986 33
1219 6
273 11
474 1
998 7
37 0
212 1
3 7
871 82
349 6
140 12
341 2
1065 33
998 43
205 78
352 11
949 1
1104 24
823 11
204 33
478 7
82 7
291 1
425 1
826 16
249 4
477 11
428 6
375 0
272 24
386 9
177 15
75 4
1055 24
295 7
523 14
477 47
724 4
73 43
858 4
25 3
561 126
462 4
454 0
1165 12
951 52
1070 3
192 0
481 17
985 45
200 4
85 17
1123 15
816 7
2 19
203 9
337 9
169 16
323 74
160 47
758 2
184 32
245 11
633 7
778 16
154 9
979 6
333 11
1105 2
385 21
63 7
709 2
226 34
123 21
720 11
823 24
1108 7
245 47
458 11
1062 40
40 23
846 7
60 1
857 16
972 3
1172 28
188 7
367 9
963 34
10 0
788 2
902 24
324 47
713 8
1069 21
860 27
671 11
275 11
690 24
1092 4
32 24
808 16
184 9
681 61
231 4
1001 2
14 6
169 29
295 105
1176 3
96 45
864 33
287 21
352 1
507 24
1240 24
226 11
823 1
480 7
1043 4
397 9
310 4
826 6
477 1
154 22
268 7
556 2
489 12
6 7
963 11
385 34
1137 47
305 11
720 24
210 2
1036 1
740 2
344 2
610 9
1039 6
690 1
253 0
481 7
85 7
44 6
272 99
788 15
219 7
807 28
2 9
431 6
1115 1
652 11
1249 1
169 6
966 21
120 1
327 34
24 33
507 1
16 29
325 110
245 1
1001 15
1042 16
28 3
162 3
435 12
750 24
194 35
382 6
173 12
273 99
811 3
508 2
17 30
291 4
9 26
123 11
277 69
1244 7
324 1
875 24
511 7
115 7
249 7
878 29
260 16
596 51
388 22
985 12
670 0
352 99
39 17
199 6
305 24
815 9
1103 4
157 9
537 1
1061 7
1088 24
1248 13
502 43
275 1
66 7
13 1
200 7
715 7
35 19
150 6
236 9
713 83
766 9
1061 43
276 2
913 28
308 34
287 11
1220 36
715 43
925 2
1137 1
928 7
9 3
1042 29
1062 7
248 19
1201 22
811 16
1221 0
206 22
321 9
415 16
540 47
104 11
701 1
305 1
761 15
471 33
1087 36
1221 36
180 6
568 2
809 28
1111 21
628 16
51 4
138 9
43 0
680 63
935 24
357 47
238 96
586 19
652 1
1183 9
1 3
168 31
872 4
335 28
422 33
822 3
841 16
1251 0
96 48
351 9
521 11
385 1
9 16
1043 7
259 11
229 19
773 3
81 4
792 16
878 19
784 12
388 12
293 3
354 19
218 9
823 89
1171 12
1122 7
271 21
472 11
860 7
464 7
160 4
502 33
1207 51
1235 33
1227 29
649 52
638 43
4 22
294 4
32 4
252 7
567 19
1183 22
369 34
677 7
194 2
1247 43
111 4
540 1
217 22
768 45
237 0
1149 2
1190 3
281 6
141 32
206 12
803 2
890 7
939 12
212 92
259 24
324 4
1236 6
908 24
290 11
1182 35
859 19
1015 7
711 4
502 10
408 3
494 6
1246 19
628 6
232 6
366 6
224 2
338 24
257 99
1015 43
987 24
369 11
1102 11
1121 24
275 4
13 4
495 7
441 36
99 7
273 43
882 7
49 6
277 13
68 19
665 9
372 22
571 2
175 2
190 45
582 11
320 11
521 1
655 1
50 7
1056 16
364 17
687 33
162 68
1221 3
173 77
388 2
342 33
354 9
1151 24
1171 2
472 1
558 4
900 33
323 21
524 11
912 7
475 6
4 12
232 19
273 20
965 19
386 77
205 2
567 9
1250 2
505 34
988 2
451 63
1 6
631 30
745 15
536 21
1220 16
1125 7
247 4
729 7
266 17
467 7
285 30
98 24
68 32
15 26
1181 24
805 2
18 31
30 5
364 30
597 9
825 16
502 0
743 63
293 6
1132 24
1246 9
72 7
159 12
681 8
1163 11
189 34
767 11
369 1
410 2
497 7
87 23
524 24
885 3
327 4
1239 6
151 7
285 7
581 6
277 3
497 43
980 11
15 3
502 121
919 1
1098 3
844 7
58 1
573 1
364 7
1190 6
61 6
490 3
281 9
19 9
923 7
1097 43
574 2
1109 17
95 4
323 11
315 7
657 36
1026 19
1227 9
831 9
622 15
4 2
232 9
45 3
1090 40
371 24
1082 36
410 15
308 4
140 11
1220 6
737 1
266 7
352 10
277 16
801 22
478 6
269 12
866 2
7 12
322 24
342 2
133 8
489 21
165 40
991 2
345 7
385 43
479 7
83 7
1102 135
29 36
143 21
110 24
209 3
295 6
819 11
33 6
1226 21
817 2
421 2
52 19
167 6
177 50
492 62
558 7
371 1
505 1
296 7
524 14
242 36
502 75
831 22
219 52
1070 38
138 64
372 2
204 9
1001 24
275 69
140 24
113 7
247 7
173 21
1112 40
1158 7
896 7
847 2
227 28
268 29
496 73
489 34
112 47
595 15
386 21
177 27
292 14
511 52
713 7
323 1
106 3
147 4
200 16
273 0
1051 2
1185 2
231 3
22 9
390 27
169 28
402 1
953 24
725 17
926 7
140 1
352 0
801 12
633 19
15 6
269 2
853 22
7 2
18 11
173 34
743 7
489 11
177 4
492 16
311 4
143 11
303 0
94 6
257 33
477 36
819 2
314 9
415 61
52 9
1226 11
207 32
804 22
367 21
568 11
983 24
1221 45
10 12
481 6
1138 47
189 14
2 8
390 4
516 0
74 33
1059 19
254 0
45 6
474 3
37 2
32 36
212 3
781 11
808 28
538 24
162 2
173 11
561 7
165 7
299 7
82 9
994 11
249 6
268 19
6 19
165 43
386 11
815 8
284 0
807 4
325 1
1207 11
724 6
454 2
85 19
200 6
192 2
807 40
2 21
1196 1
203 11
337 11
209 91
538 1
369 43
314 107
966 33
1112 7
801 2
1042 28
1062 6
853 12
322 4
978 43
542 7
751 1
173 24
165 20
280 7
1233 4
489 1
254 98
906 24
1138 1
929 7
238 10
492 6
921 3
1108 9
647 29
249 19
194 83
143 1
804 12
367 11
964 1
1005 2
702 1
10 2
157 21
868 33
281 87
356 1
188 45
93 36
200 19
32 26
1198 24
1017 12
184 11
97 6
89 2
203 24
518 36
1001 4
435 1
1093 7
173 1
897 32
111 26
823 3
713 131
77 33
1043 6
28 28
397 11
666 19
310 6
1046 11
556 4
1221 12
648 1
321 21
1172 7
1118 36
386 1
910 7
164 37
902 3
124 1
230 19
605 45
470 0
1248 2
1221 48
253 2
481 9
85 9
809 40
1037 47
628 28
51 16
620 24
989 7
2 11
1123 7
203 1
1183 21
337 1
901 43
590 1
13 26
704 23
287 0
78 6
233 29
1210 11
245 3
351 21
1148 36
853 2
154 1
729 52
823 16
385 13
332 7
204 87
238 0
477 16
81 16
133 63
367 1
408 2
815 11
191 4
1103 6
1171 24
1150 1
325 4
807 7
149 7
860 19
323 43
369 10
160 16
825 61
106 45
294 16
335 17
495 6
66 9
233 6
24 12
184 1
1229 1
673 12
296 62
236 11
966 36
677 19
309 1
496 7
100 7
925 4
548 17
226 3
708 6
245 16
499 12
277 48
397 1
572 2
1095 6
355 4
187 11
784 1
1221 2
321 11
342 34
125 36
313 7
305 3
970 11
483 9
188 12
502 22
221 9
354 44
4 11
601 1
788 7
735 1
130 7
1 5
275 16
503 23
476 6
643 3
16 21
567 44
264 6
351 11
1034 4
1200 36
141 21
206 1
385 3
164 4
110 33
156 0
1022 35
349 86
764 36
985 4
1205 7
354 21
305 16
836 24
943 7
574 24
397 99
157 1
209 48
464 9
369 0
610 63
160 6
503 0
1235 35
1227 31
335 7
1088 16
327 3
547 43
567 21
1204 47
35 11
1049 24
236 1
768 11
610 99
894 7
502 120
582 0
140 33
111 6
152 7
266 29
217 24
250 21
1001 69
847 11
866 24
376 17
886 2
759 47
113 52
187 1
415 8
27 12
321 1
342 24
795 0
164 17
324 6
365 7
103 7
95 3
502 12
60 45
400 1
984 21
224 4
1049 1
558 29
190 11
786 36
1061 12
96 4
182 7
316 7
953 33
999 0
924 6
715 12
520 2
285 19
217 1
372 24
277 15
169 73
571 4
999 36
604 1
791 7
141 11
737 36
92 6
133 7
1212 0
521 3
467 32
950 0
1170 3
330 63
8 12
209 2
19 21
616 11
1213 1
220 11
1234 24
354 11
790 47
388 4
407 17
608 7
1171 4
178 14
1003 11
386 43
983 33
95 16
819 47
296 6
724 38
1227 21
4 14
232 21
273 22
205 4
1030 1
1185 24
567 11
171 11
1250 4
768 1
231 25
559 7
163 7
22 31
14 27
685 3
995 43
337 43
698 22
1154 36
897 2
247 6
266 19
467 9
646 11
250 11
847 1
269 24
432 51
175 17
585 1
1022 2
141 24
18 33
1025 7
1159 7
239 1
877 29
1110 2
30 7
364 32
82 54
164 7
197 4
122 10
805 40
323 0
114 6
1235 2
502 2
976 7
968 3
714 7
296 19
1102 3
497 9
725 16
140 0
205 17
1189 7
403 1
927 7
7 1
502 123
194 7
227 4
569 33
173 33
601 102
790 1
364 9
498 9
994 33
281 11
805 17
19 11
616 1
1226 10
354 1
178 4
83 32
311 39
95 6
1235 15
60 48
106 15
1227 11
167 31
147 16
221 2
273 12
474 2
379 30
224 7
171 1
203 33
136 43
231 15
223 11
698 12
349 7
300 2
79 3
352 12
561 6
486 12
90 12
250 1
866 4
853 34
1033 1
342 4
428 7
1220 93
125 6
877 19
177 16
888 28
122 0
209 5
25 4
440 17
253 11
1246 1
178 17
775 7
815 43
558 9
2 20
599 10
553 43
808 4
390 16
1048 22
147 29
463 6
254 12
808 40
1218 24
372 4
854 7
204 11
129 17
1241 7
496 39
18 0
287 45
152 0
393 63
884 35
280 6
1105 3
82 21
805 7
752 1
543 7
1066 11
838 4
367 10
1192 7
1143 2
702 0
10 1
493 6
189 3
713 9
610 33
1248 24
1039 30
1227 1
25 17
986 24
568 36
273 2
748 3
1177 0
371 16
968 6
22 11
182 0
1183 43
955 36
14 7
698 2
1009 7
140 3
287 22
352 2
184 46
486 2
527 3
204 24
713 130
948 33
28 27
7 4
288 103
1222 7
227 7
542 19
146 19
1086 3
394 4
573 6
291 28
386 0
63 21
311 6
660 11
564 43
314 11
1207 0
1039 7
52 11
649 1
690 2
1119 36
178 7
607 4
553 33
1123 6
516 2
120 2
1249 2
254 2
864 11
809 75
998 11
1038 47
393 17
212 5
990 7
204 1
686 4
982 3
1001 16
424 4
416 0
162 4
590 36
778 7
341 6
154 0
515 42
79 6
561 9
165 9
333 2
328 36
385 12
1245 4
82 11
458 2
1066 1
857 7
375 4
394 17
1172 19
158 6
595 7
177 19
587 3
321 33
541 36
721 3
325 3
143 26
188 34
25 7
253 14
454 4
85 21
1206 17
1070 7
192 4
816 11
808 7
22 1
546 7
150 7
209 93
1237 4
800 3
423 16
1020 6
1100 35
1131 19
1187 3
864 24
287 12
998 24
496 6
1112 9
499 11
9 4
833 36
397 0
1013 3
363 7
165 22
489 3
480 34
594 19
63 11
324 15
477 28
846 11
610 0
838 7
188 11
52 1
180 7
293 27
354 43
10 4
1183 10
671 15
275 15
932 19
172 2
997 36
393 7
24 24
1050 11
169 33
47 7
731 2
959 9
750 15
791 16
173 3
925 16
385 2
131 6
82 1
337 111
826 10
477 5
268 11
624 24
260 7
993 7
1172 9
207 1
386 3
1218 125
305 15
815 0
553 0
819 7
122 42
605 47
1248 4
1005 17
85 11
1206 7
4 23
419 36
32 5
1152 36
366 30
1008 22
24 1
640 4
189 68
168 45
296 51
275 28
161 6
536 32
287 2
715 34
916 24
499 1
719 4
28 7
154 3
141 33
187 0
811 7
415 7
594 9
112 6
104 2
1110 11
1244 11
478 63
552 12
21 4
1236 7
449 36
712 1
281 43
502 11
293 17
354 33
628 7
1016 3
210 19
807 9
366 7
754 3
323 45
1053 7
240 47
422 24
487 4
715 11
184 3
453 11
567 33
653 36
841 7
1229 3
579 7
1000 0
480 1
9 7
438 4
289 24
605 1
355 6
227 49
6 1
1221 4
792 7
575 9
1004 6
50 44
1130 2
734 2
693 1
472 2
1088 5
483 11
825 40
502 24
1235 24
221 11
85 1
818 1
871 7
4 13
628 20
347 7
735 3
149 22
96 16
169 0
1 7
495 21
468 4
1084 7
1031 1
339 2
171 46
822 7
560 7
277 27
68 33
15 27
395 19
26 36
18 32
133 19
152 32
521 15
1064 34
277 63
50 21
1095 21
8 24
1221 17
388 16
985 6
293 7
502 1
427 7
240 1
1171 16
1163 12
243 6
122 45
168 12
464 11
369 2
901 12
377 6
95 28
221 24
1227 33
1246 46
965 33
205 16
24 4
1239 7
715 1
252 11
977 7
285 8
453 1
236 3
96 29
1250 16
1221 138
1113 47
194 6
502 122
582 2
1098 4
152 9
1232 4
58 2
854 52
352 34
277 40
1056 7
1010 40
687 24
61 7
8 1
19 10
676 51
354 0
145 6
259 28
533 2
164 19
942 21
271 2
262 33
900 24
282 11
483 1
274 7
1007 7
543 52
221 1
12 7
494 10
1227 10
441 4
224 6
182 9
296 31
88 2
725 28
107 15
1094 11
1220 7
205 29
225 7
1231 16
285 21
486 11
612 7
175 6
7 13
812 32
395 9
50 11
364 21
688 2
699 11
376 32
605 4
691 7
209 4
496 97
825 7
11 19
167 7
1246 0
1171 6
767 2
464 1
255 7
505 2
475 10
147 28
1113 1
53 21
254 11
4 16
205 6
493 64
68 0
1115 47
337 45
885 30
349 19
884 34
266 21
1117 7
467 11
1022 4
281 0
805 6
1242 7
342 16
19 0
27 4
165 54
30 9
364 34
82 56
680 11
209 17
323 2
1235 4
106 4
494 0
1018 6
1037 19
72 11
273 1
64 7
406 36
558 21
190 3
390 28
1059 43
140 2
99 1
1011 3
319 4
305 106
998 33
1231 6
285 11
184 45
969 6
1010 7
486 1
277 7
15 7
444 4
718 15
141 3
18 12
911 1
247 21
364 11
565 1
465 63
303 1
8 4
436 36
0 0
523 4
701 47
1109 21
87 4
315 11
912 1
33 33
254 1
736 4
45 7
171 3
212 4
914 47
182 12
1216 3
14 19
215 9
349 9
266 11
467 1
895 33
1083 4
150 65
478 10
82 10
907 7
604 6
771 3
991 6
345 11
386 12
291 40
680 1
303 14
21 36
209 7
295 10
127 17
1120 7
724 7
1067 1
25 6
367 35
1173 19
850 3
1184 28
815 45
1070 6
10 26
170 15
599 12
296 11
209 92
497 1
288 7
1059 33
200 43
883 36
1071 7
1112 8
212 17
372 6
413 7
667 3
592 9
504 125
162 16
1241 9
1147 2
18 2
154 12
770 15
561 21
272 4
217 68
291 17
364 1
492 7
1203 19
29 17
1022 7
143 2
500 11
257 24
194 84
268 33
1014 3
60 4
743 34
1055 4
260 29
321 45
576 6
991 19
406 3
914 1
336 24
839 7
187 81
74 24
985 61
85 33
273 4
674 19
1185 6
325 51
781 2
231 7
14 9
1229 12
173 2
998 36
287 24
352 4
823 4
478 0
82 0
310 7
397 12
257 1
162 29
826 9
477 4
911 4
260 6
811 29
648 2
272 17
386 2
83 1
565 4
303 4
1036 4
1215 6
523 7
610 12
1207 2
1248 3
605 46
127 7
261 7
576 19
1058 22
387 3
473 6
2 12
599 2
337 2
169 9
1249 4
966 24
1081 11
549 1
1032 6
287 1
474 7
420 36
1199 3
212 7
1218 16
393 19
264 17
96 61
812 2
162 6
550 2
173 15
561 11
165 11
925 28
917 24
870 92
896 1
1232 36
291 7
277 72
238 1
29 7
28 42
666 33
826 22
155 3
678 7
260 19
898 47
561 96
367 2
713 1
135 24
868 24
450 36
504 7
81 53
25 9
85 23
200 10
412 9
1123 21
222 28
1229 2
169 22
369 47
926 1
530 1
447 3
1112 11
830 33
111 17
226 4
1096 3
77 24
397 2
590 51
1160 24
743 1
272 7
701 4
921 7
439 4
1055 7
262 42
610 2
651 3
785 3
389 3
408 16
85 0
305 40
10 6
51 7
807 21
366 19
2 2
518 4
149 21
1183 12
1134 7
168 34
476 7
13 17
864 3
118 33
602 3
393 9
243 64
171 45
264 7
1042 9
563 11
1085 7
165 1
898 1
226 17
823 7
1250 74
909 10
385 4
1244 0
257 4
1035 6
248 35
477 7
81 7
40 6
27 36
260 9
6 13
815 2
1171 15
962 21
553 2
168 11
1248 6
920 24
160 7
502 36
294 7
200 0
1206 9
32 7
1246 45
715 0
96 28
1061 36
744 63
381 11
367 113
287 4
582 1
273 69
320 1
111 7
17 0
285 43
499 3
853 6
195 6
287 89
321 2
1098 39
324 7
271 1
753 4
122 21
188 3
428 64
293 19
628 9
534 2
1171 28
366 9
157 15
1008 1
149 11
746 1
484 1
275 7
335 21
13 7
401 3
205 28
506 19
16 12
351 2
68 22
1000 2
697 1
226 7
1232 16
521 4
741 7
259 4
875 7
826 2
187 15
825 6
206 28
513 36
354 12
305 7
1162 36
954 7
168 1
1088 7
95 17
684 3
475 9
12 19
51 10
701 92
681 34
130 11
1 9
779 11
1167 7
335 34
1073 0
932 24
468 6
1220 19
119 1
339 4
97 62
285 33
560 9
343 11
248 2
7 25
18 34
198 1
668 36
1244 3
82 55
156 4
1062 75
8 26
605 16
209 16
73 6
122 11
456 36
985 8
19 35
1213 15
636 3
1246 12
923 33
943 11
338 17
681 11
149 1
1069 7
209 52
369 4
160 10
335 11
1019 6
327 7
536 1
24 6
16 2
163 21
760 11
277 6
297 21
698 36
502 124
582 4
320 4
615 1
152 11
1232 6
312 0
144 7
426 22
532 3
478 32
270 3
281 12
342 28
19 12
354 2
177 40
365 11
271 4
357 7
699 36
303 36
122 24
95 7
892 22
920 4
502 16
1186 11
1227 12
221 3
452 15
567 2
171 2
243 21
390 40
295 68
96 8
182 11
88 4
779 1
1175 1
296 33
308 7
337 34
516 36
646 2
250 2
183 12
780 2
411 19
15 19
612 9
395 11
992 1
342 5
18 24
125 7
259 7
847 28
1116 36
8 16
605 6
209 6
122 1
597 2
1226 24
608 11
354 15
809 1
272 62
367 34
964 24
547 1
338 7
975 33
681 1
505 4
87 16
288 6
725 7
335 1
368 35
414 2
1219 21
1071 6
862 12
212 16
285 0
371 40
505 40
68 2
1188 33
163 11
760 1
182 24
599 47
569 24
247 10
18 1
152 1
668 3
364 0
1001 63
102 0
376 11
994 24
281 2
27 6
19 2
763 11
30 11
508 50
869 29
701 36
889 7
929 43
189 4
827 32
504 16
1215 28
819 28
135 33
1235 6
295 22
209 19
858 19
323 4
1246 15
106 6
147 7
367 47
976 11
117 21
1150 47
22 12
1102 7
706 7
182 1
140 4
998 35
266 0
277 9
1001 40
15 9
926 46
1127 36
162 28
919 7
395 1
1233 17
1105 17
345 0
823 39
63 22
177 7
565 3
311 7
143 14
303 3
262 2
805 21
257 36
1006 11
610 11
314 12
165 69
784 47
448 12
367 24
52 12
649 2
815 34
189 17
599 1
390 7
524 7
610 47
25 31
650 3
273 16
474 6
735 47
231 19
1009 21
1123 43
1001 17
204 2
383 4
215 11
812 1
121 4
349 11
140 17
341 7
683 36
352 16
467 3
291 6
82 12
28 41
554 7
245 75
292 7
238 36
1036 16
713 0
610 24
1039 21
630 2
167 12
72 3
200 9
1131 24
371 7
505 7
109 7
497 3
169 21
880 33
1249 16
288 9
475 64
221 68
85 58
1146 3
59 6
212 19
1104 6
1230 2
948 24
584 7
530 36
531 1
322 7
18 4
1233 7
1179 36
979 11
489 4
971 7
272 6
709 7
63 12
835 3
143 4
1055 6
314 2
610 1
583 47
1226 4
1172 33
568 4
1184 7
1130 36
398 1
189 7
922 7
2 1
553 24
356 4
188 48
1039 34
25 21
293 64
872 6
200 22
273 6
534 47
231 9
1001 7
483 81
215 1
349 1
435 4
132 3
173 4
561 0
165 0
352 6
823 6
131 7
82 2
9 18
1222 11
826 11
229 21
477 6
469 2
6 12
944 3
321 24
226 52
1078 3
386 4
815 1
553 1
295 2
1207 4
481 12
568 17
85 12
305 52
2 14
599 4
203 4
337 4
423 7
169 11
369 36
161 7
340 9
932 33
367 112
830 22
1030 47
224 63
1163 82
212 9
768 47
245 6
499 2
1241 1
154 4
173 17
1106 42
205 86
374 7
508 7
63 2
291 9
212 94
1244 12
712 2
857 11
188 2
1058 1
179 33
595 11
1192 1
796 1
259 62
795 36
367 4
534 1
105 4
325 7
713 3
754 4
317 3
1008 0
1103 9
1202 51
1036 19
275 6
690 19
1072 21
13 6
200 12
1171 63
184 4
1009 1
318 4
936 17
747 1
351 1
169 24
1229 4
530 3
134 3
799 11
1187 7
925 7
507 19
1240 19
917 3
633 15
397 4
229 11
826 1
248 24
960 1
564 1
355 7
395 43
489 7
6 2
1172 0
177 0
50 45
1056 54
143 7
610 4
1088 6
388 40
576 11
293 31
481 2
85 2
366 21
2 4
727 0
586 24
222 7
168 36
169 1
1 8
106 61
294 32
703 51
172 6
393 11
24 28
150 24
264 9
1042 11
1034 7
780 11
1168 7
248 1
173 7
206 4
385 6
446 22
278 29
1244 2
229 24
875 19
511 2
249 2
376 43
81 9
281 34
878 24
290 3
1221 18
992 46
1033 47
293 8
522 17
354 24
815 4
1111 3
1171 17
553 4
157 4
680 45
1069 6
122 46
464 12
95 29
149 0
369 3
475 21
1206 11
674 1
715 2
366 34
16 1
453 2
567 24
150 1
639 129
182 33
202 11
153 6
1114 13
381 13
496 0
217 27
285 45
560 21
28 11
229 1
666 2
248 14
187 4
811 11
133 33
321 4
415 11
312 35
145 7
929 3
324 9
639 21
271 3
281 47
1174 36
1006 43
483 2
293 21
4 4
628 11
232 11
138 4
177 75
157 17
366 11
397 115
700 36
304 36
1049 4
1061 15
209 64
275 9
724 64
13 9
308 6
1133 3
393 1
821 33
244 21
217 4
390 75
351 4
1042 1
68 24
183 11
134 6
395 10
301 3
1166 36
320 16
513 2
259 6
277 54
50 12
262 11
832 47
187 17
388 7
776 3
1045 11
514 3
305 9
1171 7
397 92
271 16
262 47
168 3
295 44
464 2
1088 9
502 28
475 11
1227 24
1206 1
4 17
965 24
601 7
205 7
252 2
232 24
35 4
458 107
768 4
1250 7
988 7
524 52
1 11
247 9
1185 63
581 34
217 17
814 7
1023 1
371 75
478 21
847 4
281 1
1201 7
26 40
415 1
19 1
342 17
1236 1
840 1
103 0
262 24
122 13
293 11
167 21
628 1
232 1
669 2
756 7
366 1
1144 3
338 19
987 19
1102 6
87 28
1121 19
524 29
843 11
16 4
977 11
1231 7
236 7
269 4
148 43
832 1
141 4
320 6
361 7
1224 4
1056 11
1001 75
847 17
658 1
262 1
699 2
1128 36
878 4
354 4
440 7
1151 19
137 6
1003 4
263 2
873 11
209 31
819 40
323 16
524 6
475 1
1026 24
213 1
4 7
433 4
171 4
190 17
505 29
1102 19
1 1
733 36
308 9
349 10
463 32
99 15
140 16
957 9
352 15
467 2
277 21
250 4
478 11
269 17
866 7
384 4
1181 19
1209 1
604 7
342 7
18 26
1212 6
334 3
152 26
730 3
467 38
259 9
345 12
991 7
1076 2
899 40
8 18
209 8
295 11
825 11
817 7
52 24
1132 19
167 11
72 2
159 7
1192 33
1246 4
367 36
501 36
295 47
505 6
524 19
631 2
85 57
205 10
634 7
171 17
325 75
581 1
977 1
22 37
26 7
352 28
250 17
847 7
364 2
1056 1
281 4
194 85
945 133
19 4
314 1
1180 36
448 1
535 6
365 3
680 15
672 11
712 47
846 47
323 6
798 7
187 82
33 24
1227 4
53 2
106 8
1185 7
1131 36
190 7
390 32
619 4
182 3
497 15
1135 6
349 0
140 6
1051 43
1044 4
393 43
895 24
277 11
633 24
269 7
853 27
7 7
47 43
322 19
154 26
227 10
395 3
436 4
18 16
133 3
193 17
226 51
782 3
245 64
291 31
91 6
83 2
177 9
1223 11
691 1
1215 7
295 1
1161 36
1207 3
260 43
394 43
167 1
481 11
568 16
253 4
1232 96
1172 45
1003 7
607 7
2 13
390 9
296 2
307 11
25 33
1059 24
200 34
37 7
674 33
808 33
117 36
231 21
600 4
204 4
1001 19
150 33
22 27
820 7
739 19
370 36
162 7
435 16
550 3
341 9
247 2
165 12
1031 47
250 7
500 2
63 1
417 4
899 7
1242 1
846 1
268 24
249 11
1066 4
6 24
165 48
521 61
272 31
63 37
501 3
1192 0
177 22
774 12
478 99
1248 17
1066 40
25 10
576 33
1058 36
85 24
200 11
399 17
588 7
1225 33
192 7
366 43
203 16
1196 6
337 16
974 42
926 2
530 2
85 60
496 9
675 11
581 4
1063 7
413 11
453 47
614 1
1062 11
1013 6
322 9
193 7
291 21
492 11
238 15
430 36
249 24
477 31
314 4
610 3
1066 17
60 8
260 33
568 6
742 42
10 7
364 90
1103 21
2 3
1022 96
1141 47
222 6
724 24
147 12
388 75
1040 1
777 36
482 2
347 43
97 11
184 16
203 29
231 11
168 71
215 3
160 67
570 51
134 15
173 6
165 2
82 4
397 16
907 1
28 33
666 24
248 36
40 7
174 7
260 10
952 9
374 32
1172 12
992 45
272 21
6 14
177 12
207 4
277 99
386 6
210 9
230 24
295 4
610 16
1248 7
502 37
253 7
293 43
408 30
200 1
1070 0
2 16
599 6
681 45
203 6
1028 3
337 6
168 48
314 102
557 9
335 45
830 24
204 7
499 4
1062 1
853 7
457 7
591 7
542 2
205 88
206 16
321 3
998 102
291 11
77 51
492 1
1141 1
81 21
678 11
556 22
1066 7
670 7
188 4
890 47
408 7
367 6
259 64
1111 15
1016 6
157 16
1122 24
1142 2
149 12
705 1
1061 14
757 11
1092 1
118 24
487 7
393 0
24 17
1198 19
567 36
613 3
1050 4
203 19
1229 6
236 16
351 3
1102 51
677 24
697 2
111 21
1232 17
909 1
58 15
1042 36
614 4
1050 40
268 4
260 0
1221 7
206 29
321 16
6 4
164 32
921 11
962 12
819 0
1047 7
1039 3
85 4
997 6
51 11
989 2
1123 2
350 15
169 3
738 11
1 10
598 0
912 47
864 7
468 7
253 82
924 21
904 43
381 2
16 26
244 33
808 75
285 34
380 43
1197 36
88 51
162 0
248 3
940 2
811 0
415 0
1098 30
890 1
1129 17
1244 4
1190 33
81 11
605 17
469 7
388 19
461 3
502 4
20 1
207 7
628 0
1056 69
807 2
157 6
271 28
149 2
1061 4
477 96
160 11
502 40
294 11
494 36
32 11
715 4
24 7
16 3
681 48
150 3
1027 127
578 35
673 7
1155 47
161 12
335 48
111 11
266 34
1232 7
499 7
1178 36
1224 3
50 1
229 3
1190 10
973 12
832 36
27 17
281 13
321 6
324 11
42 33
498 47
1062 89
659 1
700 2
483 4
502 17
221 4
1018 19
837 7
4 6
1091 3
51 1
347 0
224 9
567 3
1 0
13 11
802 22
916 7
16 16
1050 7
285 24
996 36
351 6
392 7
343 2
395 12
92 11
247 34
521 8
749 15
855 33
251 4
679 36
471 7
81 1
605 7
122 2
859 3
388 9
293 0
1213 6
354 16
809 2
923 24
440 19
836 19
574 19
83 47
558 11
1155 1
692 11
1080 7
160 1
335 2
422 7
368 36
32 1
205 9
171 16
285 1
22 36
988 9
1 13
337 48
336 83
308 21
905 11
247 11
957 21
635 7
548 2
217 19
111 1
152 2
331 4
866 19
498 1
61 0
235 36
281 3
510 12
1107 2
27 7
19 3
247 47
30 12
185 35
896 47
345 24
259 21
365 2
502 7
106 7
1235 7
1246 16
366 3
190 6
296 24
1053 3
335 15
253 62
327 11
487 0
528 1
802 12
588 52
99 4
266 1
1219 35
1247 17
97 43
486 4
372 19
231 43
1029 23
7 6
194 12
395 2
1098 10
133 2
668 17
345 1
50 4
8 7
437 4
19 16
1139 47
939 22
1226 15
354 6
178 9
975 24
75 33
558 1
1036 40
95 11
296 1
483 7
87 7
475 3
221 7
1227 16
167 36
724 33
254 4
4 9
870 7
37 6
1185 19
539 24
171 6
1102 21
1188 24
820 6
1249 40
308 11
937 33
1206 78
247 1
38 7
474 43
352 17
467 4
675 33
687 7
269 19
1075 3
679 3
593 0
7 19
275 99
342 9
18 28
393 91
877 24
394 19
30 2
251 7
888 33
680 4
143 28
418 4
900 7
209 10
41 17
1242 36
589 2
701 63
539 1
22 3
893 4
497 4
128 21
725 11
1113 7
717 7
188 72
254 17
327 1
85 59
797 36
65 1
151 4
843 3
285 4
372 9
231 33
1063 6
581 3
204 16
277 0
502 118
435 28
247 14
1139 1
930 7
823 30
1056 3
847 9
364 4
794 3
94 0
805 12
19 6
314 3
52 3
367 15
158 21
386 28
63 49
1192 12
492 46
1089 36
357 1
512 24
1055 43
95 1
523 33
147 11
1227 6
25 22
831 6
367 51
159 22
756 12
273 7
815 61
661 3
968 11
203 28
410 12
14 12
1094 7
698 7
160 66
1014 127
484 47
140 8
266 4
352 7
561 1
486 7
1096 16
269 9
82 3
7 9
824 2
327 99
146 24
542 24
697 47
394 9
345 4
285 102
177 11
565 7
311 11
303 7
1036 7
249 36
1215 9
209 0
295 3
429 3
470 4
52 16
167 3
253 6
1124 7
387 6
178 12
10 19
607 9
2 15
873 16
390 11
296 4
1028 2
652 17
880 24
1039 48
120 7
1249 7
254 7
818 49
725 1
998 16
24 39
849 36
204 6
196 2
221 95
500 4
291 10
82 16
238 4
637 9
811 45
415 45
1066 6
1172 24
260 22
272 33
394 22
177 24
324 43
807 11
713 4
295 16
1248 19
147 1
25 12
663 3
797 3
259 99
1070 12
192 9
22 6
14 2
758 11
664 4
1096 6
768 61
405 9
101 6
182 80
1222 2
162 22
322 11
268 3
173 31
1172 1
594 24
709 11
321 15
177 1
701 7
1043 36
311 1
1089 3
50 46
698 118
523 0
314 6
1047 6
180 12
628 22
10 9
788 11
364 92
1122 36
390 1
1123 1
1062 134
914 7
1048 7
169 2
652 7
1100 17
172 7
32 33
998 6
306 7
212 0
694 3
203 31
252 36
518 43
223 9
861 0
1175 47
181 12
905 43
561 4
165 4
205 77
385 7
82 6
465 36
257 7
469 6
556 11
179 24
595 2
1078 7
277 101
1111 4
807 1
344 11
545 1
336 7
281 71
470 7
503 4
568 21
85 16
1206 12
1070 2
200 3
286 6
366 35
2 18
150 2
786 63
423 11
161 11
67 4
153 7
287 7
1112 4
499 6
17 3
760 47
894 47
162 12
811 12
500 7
238 7
875 33
230 3
81 23
887 7
838 2
576 2
628 12
250 97
1171 31
325 11
1008 4
526 1
525 36
586 15
1088 33
369 17
494 48
393 2
1001 1
1042 2
295 104
161 24
276 11
181 2
791 11
171 74
863 36
499 19
9 12
1062 16
81 0
268 6
1221 9
6 6
1172 4
259 43
1122 3
168 4
160 0
20 26
294 0
818 6
85 6
1206 2
191 24
989 4
157 31
935 33
1155 36
423 1
169 5
947 7
1 12
894 1
88 17
476 13
1081 7
864 9
273 62
16 28
426 12
339 7
331 3
325 109
36 6
811 2
898 7
133 24
112 1
198 4
324 0
115 6
156 7
1236 2
544 3
773 12
290 7
187 31
985 11
589 11
502 6
361 67
240 6
354 28
494 2
628 2
1171 21
157 8
243 11
271 30
149 4
464 16
1061 6
578 1
87 29
275 0
168 17
369 7
422 19
13 0
495 3
24 9
821 24
1136 36
1250 21
713 82
404 1
96 34
791 1
582 7
925 1
320 7
1232 9
58 7
9 2
237 9
270 6
490 9
281 15
1004 1
259 33
499 94
164 24
1056 48
962 4
908 33
263 3
209 32
502 19
475 2
1227 15
51 3
177 79
1217 1
224 11
366 15
130 4
1036 75
96 11
1 2
476 3
367 96
1220 12
38 6
560 2
277 22
15 22
1249 75
215 47
866 8
563 7
247 36
30 1
50 16
164 1
82 48
908 10
262 15
81 3
605 9
209 9
122 4
388 11
985 1
39 6
809 4
178 21
1171 11
681 4
168 7
464 6
1226 63
1227 28
221 19
335 4
4 21
601 11
205 11
631 3
285 3
768 8
1250 11
296 49
222 63
1189 1
725 46
980 7
710 3
1124 137
152 4
98 33
203 86
969 34
269 31
498 3
27 9
1242 12
1233 43
407 1
931 7
448 2
958 24
177 33
364 39
83 26
122 17
726 132
323 7
711 3
1007 2
502 9
1125 137
53 3
240 9
1037 24
547 17
224 1
124 63
987 23
96 1
410 11
182 4
497 16
744 36
348 36
140 7
1220 2
205 24
662 3
266 3
957 0
1231 11
212 32
372 21
277 12
15 12
483 117
