38 114
833 51
964 11
270 102
114 18
317 111
954 46
770 65
735 127
703 59
218 138
178 0
75 88
886 41
167 20
1134 32
446 6
645 59
318 88
696 130
307 47
429 0
484 94
1008 41
1234 107
431 50
610 69
724 23
383 91
904 137
849 6
150 9
1143 10
320 138
40 130
302 90
778 92
692 99
96 81
744 66
567 105
732 11
458 10
681 2
686 139
72 43
341 119
619 61
900 92
736 86
368 53
1242 9
305 126
314 57
822 138
678 103
16 117
413 81
28 34
556 116
131 53
309 111
778 104
337 119
751 79
1213 24
1210 0
150 124
693 64
337 15
410 8
640 20
365 50
1131 50
248 102
1113 122
881 118
1110 43
989 61
654 54
595 125
905 90
542 109
776 27
873 58
629 3
653 32
709 95
601 58
419 65
650 19
383 110
1126 5
1198 5
1154 50
400 78
747 52
455 64
760 86
656 124
155 129
158 74
1009 88
333 3
1209 97
945 52
823 135
351 115
239 46
273 21
989 3
1086 31
379 76
671 135
119 122
286 139
1045 120
328 40
1156 15
203 71
869 93
160 39
226 20
17 49
743 31
1170 110
792 121
1171 98
607 112
501 0
1166 65
1186 124
938 22
1139 50
427 70
1101 60
5 29
449 88
1224 101
775 84
220 66
1048 57
1224 15
932 5
989 42
146 17
670 93
579 43
665 125
40 1
1183 42
858 66
702 108
1095 29
1146 56
330 3
738 133
494 93
539 130
495 108
366 90
931 59
659 12
924 62
1125 109
1174 21
984 17
1168 30
65 57
1186 22
937 35
255 136
888 62
901 27
576 74
302 105
893 26
1225 117
1150 6
650 55
820 134
1023 5
151 77
678 127
1080 85
938 69
1092 22
1090 73
1094 86
838 62
717 92
1129 126
691 54
1042 19
642 122
516 31
928 93
1117 23
662 0
277 90
858 107
1140 79
382 66
435 25
581 50
1058 66
253 55
299 102
968 5
983 32
1125 55
985 75
982 58
454 99
215 103
444 112
699 26
399 87
51 119
352 62
395 108
3 130
801 18
486 99
680 134
730 104
96 25
181 123
581 75
1011 124
375 41
153 128
289 23
271 14
381 14
1105 71
308 105
107 8
654 97
652 129
830 108
261 99
517 37
683 85
895 16
38 139
986 56
795 71
1249 60
1043 0
538 3
355 27
1140 66
322 21
1233 3
297 88
273 61
1135 127
951 71
417 100
363 24
388 28
571 71
337 103
438 85
29 84
918 53
133 70
864 109
125 9
1047 43
250 19
465 114
553 94
939 135
785 138
1118 93
963 90
607 44
1128 35
512 96
1249 34
830 137
522 137
1216 53
477 106
818 34
1241 112
130 134
668 103
1200 6
1235 114
1197 21
889 106
520 124
1100 80
232 10
561 81
122 120
1042 18
582 38
435 120
286 60
540 98
501 84
800 99
303 88
38 8
868 87
1133 96
190 138
819 112
1175 51
1 63
489 119
863 55
522 40
689 71
929 52
569 136
333 128
41 0
1162 26
733 4
1212 99
394 126
1212 114
533 130
1088 121
418 7
718 39
602 127
97 116
742 22
390 136
412 60
1014 23
1125 108
60 87
160 59
1190 52
312 56
511 114
151 34
1219 10
481 116
803 36
1221 40
1212 21
175 126
844 21
906 71
1151 8
280 112
525 56
173 138
1143 42
340 34
1114 53
537 35
308 16
221 25
32 23
425 99
152 16
443 95
648 5
483 14
333 131
1202 130
1013 92
405 64
1160 44
1163 83
1063 40
729 48
557 139
357 0
532 49
19 33
464 126
952 6
473 69
132 89
325 67
1139 36
653 24
375 93
559 38
282 26
1125 135
792 43
619 111
220 50
1181 101
637 35
691 133
264 103
191 105
89 104
1168 63
425 89
1059 92
405 14
203 66
79 116
321 106
574 39
90 42
291 70
1062 12
847 83
1091 104
503 130
1234 54
588 4
554 87
724 14
807 135
406 19
426 74
1073 104
691 97
494 81
179 95
595 54
768 131
736 23
1048 44
470 104
1158 36
782 132
454 36
668 71
647 33
1162 41
399 75
589 133
1007 131
398 76
1050 100
543 61
775 133
254 83
1220 128
757 131
904 133
390 64
738 93
447 8
209 77
1207 66
872 24
431 17
690 34
540 42
1142 98
372 40
935 52
636 71
537 92
588 8
752 77
435 123
315 124
548 39
725 12
652 73
357 94
1083 118
1166 34
915 112
1233 19
541 118
690 39
1009 43
59 63
343 31
1124 111
1183 131
551 133
671 92
159 47
282 2
146 131
395 104
374 129
1203 39
563 92
1062 72
594 71
1098 90
683 131
155 30
944 46
385 139
899 131
489 22
745 33
794 33
467 112
955 62
1087 137
113 90
1131 67
822 133
174 101
1130 18
1189 59
1212 69
1247 132
563 36
815 122
695 75
1249 94
128 132
321 0
703 85
864 105
164 53
662 42
295 136
1179 137
1038 138
248 96
822 44
380 62
467 104
1133 130
1086 123
486 44
868 36
88 71
574 59
300 57
863 19
224 22
224 8
1151 55
951 115
492 57
1196 86
107 112
1127 6
763 127
425 31
1206 31
1102 41
438 31
511 61
541 6
68 16
115 124
19 124
1019 109
494 73
223 108
45 65
790 78
980 90
1080 52
109 135
731 1
1145 117
16 43
672 73
563 0
329 62
435 60
642 29
1032 70
98 32
742 124
917 0
328 80
1115 64
103 105
14 28
792 88
693 79
547 100
1208 59
120 111
1147 80
993 130
64 106
805 132
901 28
93 38
1250 116
958 0
213 123
202 137
528 126
170 84
264 27
857 20
1102 72
475 101
921 98
604 93
416 23
183 84
1030 11
724 10
416 31
158 65
1121 14
778 77
665 24
962 72
847 31
437 102
768 130
628 94
1192 124
286 104
1168 11
976 131
239 115
729 56
511 127
135 98
297 22
341 46
233 57
160 112
633 14
976 111
523 130
656 121
1172 113
307 78
438 13
809 87
601 62
1114 116
439 119
1142 24
797 93
1003 94
259 30
21 60
433 38
833 108
793 1
929 119
154 31
139 85
81 125
1202 127
307 5
22 2
761 92
736 115
621 132
1239 50
1142 68
468 110
1203 90
1205 96
963 52
960 111
300 19
793 97
637 116
1087 37
1127 27
715 106
1109 76
496 51
1017 17
1087 7
331 31
1242 101
87 64
1098 92
1085 127
821 88
122 12
964 54
573 87
877 14
639 102
963 132
684 80
1232 61
410 82
413 100
573 133
347 77
106 103
1034 121
724 3
278 3
1089 43
29 106
1122 120
1120 38
345 59
1188 115
769 119
451 21
892 109
490 8
83 121
249 21
1177 13
1163 15
1138 115
297 66
809 59
1130 87
175 23
648 74
927 130
1088 84
160 51
178 101
100 94
978 110
331 12
36 19
370 137
407 50
909 108
268 130
473 95
1019 30
880 0
252 59
264 33
495 48
162 137
1012 50
64 58
649 77
377 81
120 44
199 28
468 131
507 74
949 99
736 31
1114 112
296 21
548 77
940 25
784 4
656 50
24 80
516 48
736 69
1128 83
549 20
375 66
664 17
521 14
832 35
911 113
506 31
1071 86
912 139
982 84
475 137
1136 137
61 107
671 77
1096 104
369 50
857 73
513 71
1132 69
745 13
164 15
1167 107
254 128
763 133
1143 29
27 2
413 107
616 87
752 35
759 28
177 44
1078 123
426 88
863 107
113 15
310 111
1141 12
1222 8
1147 16
846 136
585 111
670 78
943 128
419 76
447 77
255 47
824 128
230 107
548 85
616 48
889 41
244 26
497 19
668 102
611 100
189 97
1029 88
578 113
683 59
1144 118
337 95
11 67
868 4
266 122
955 124
983 87
545 48
218 80
655 97
479 37
259 57
914 25
1082 107
1144 38
533 123
822 124
1094 77
599 79
693 127
473 12
180 76
640 51
628 71
1003 17
231 129
687 56
1143 21
399 11
817 102
697 64
663 6
1244 126
134 70
558 113
262 123
809 104
601 37
339 106
337 56
117 114
1020 115
859 32
513 84
1067 21
830 127
1112 121
629 120
1008 32
280 113
719 99
631 70
156 18
1163 28
633 9
728 65
1225 1
63 9
1153 111
210 115
942 13
210 82
9 136
310 31
1251 93
425 132
92 88
621 9
1070 51
893 65
805 111
884 56
25 68
734 28
179 10
162 77
518 107
1003 64
443 17
528 47
259 51
544 5
161 90
720 42
40 57
1116 76
850 56
1094 6
1249 132
1122 40
1170 105
42 57
953 30
1052 52
60 60
423 59
201 95
1163 84
632 20
914 60
310 56
177 21
164 16
61 112
372 30
203 98
822 102
1064 52
1177 24
1143 17
4 96
752 51
691 37
1213 134
444 93
1197 80
1208 98
896 55
901 44
337 120
668 120
400 134
1125 39
696 18
132 122
850 130
7 109
423 120
722 111
173 105
89 116
479 107
441 70
1003 70
441 58
1248 114
385 37
976 18
1041 17
1047 13
1078 117
40 100
788 34
914 116
718 136
193 57
655 20
752 47
708 32
545 9
164 81
229 57
776 57
453 116
408 130
864 34
300 116
863 116
525 0
227 70
729 83
66 82
652 31
1039 41
66 53
385 116
82 36
984 24
1230 10
273 58
405 48
511 32
671 95
610 40
537 2
691 63
1133 4
511 12
1080 139
1008 86
730 108
1149 43
607 109
215 75
664 85
708 24
232 118
51 55
433 79
526 78
269 112
307 41
467 85
908 96
1241 78
257 116
1245 32
712 6
447 57
945 126
976 128
924 75
461 130
706 49
431 59
665 28
712 46
372 129
1049 44
327 37
800 107
1027 118
468 16
1128 21
487 9
498 135
473 107
223 45
585 26
822 122
252 91
29 35
470 62
681 23
1081 64
137 123
875 46
1114 117
1235 64
1186 63
777 63
844 112
880 74
942 18
1027 64
516 91
795 85
231 6
875 117
738 127
599 93
843 70
550 4
569 42
68 114
995 138
140 110
514 108
7 111
162 19
586 107
220 136
490 121
971 44
103 79
1232 98
773 17
996 32
1118 64
772 54
582 138
860 1
337 82
750 26
878 83
68 15
904 92
638 12
1201 57
699 100
248 68
927 41
181 29
369 85
385 82
228 51
908 39
916 33
915 14
536 40
978 74
836 18
528 120
781 24
1080 51
385 117
106 136
78 55
1186 127
533 139
715 44
830 61
896 92
1199 139
1086 101
999 107
380 13
712 0
144 107
538 39
1085 101
133 62
502 113
198 27
1008 21
114 0
319 3
487 30
558 26
436 29
775 60
725 44
800 88
524 78
95 40
264 87
1063 118
632 15
133 55
777 117
474 39
1101 61
532 73
560 31
133 88
251 53
719 84
1227 37
66 91
602 62
1045 56
1052 22
158 13
649 78
292 101
41 39
340 59
1154 60
1047 73
1167 86
1190 73
100 68
153 36
497 48
803 127
1247 60
1157 29
757 32
128 55
1128 135
892 91
280 26
492 113
614 106
90 48
18 65
500 130
812 10
71 85
294 31
347 64
770 124
244 121
589 22
36 91
78 136
1245 28
74 98
674 109
251 74
85 128
793 28
404 81
523 57
377 50
61 119
858 114
161 105
613 88
429 21
921 94
201 45
990 92
1191 51
676 63
520 122
1094 59
535 32
28 91
197 112
1147 37
338 6
611 4
805 50
696 56
683 9
720 6
982 86
998 64
138 8
1082 41
1153 50
232 100
472 26
602 50
251 92
993 64
1236 44
331 46
982 136
162 48
639 42
1036 31
715 123
919 120
545 44
42 100
1037 20
954 67
325 10
1175 44
565 79
425 62
241 10
1030 13
1039 19
594 88
38 37
356 14
924 136
688 66
993 17
476 77
677 38
890 100
575 51
1149 47
1063 35
798 124
1185 26
417 18
102 116
759 93
735 110
0 109
1205 47
945 30
245 10
405 74
413 108
412 3
513 87
776 76
786 82
1061 76
815 99
1108 88
29 115
583 118
1151 46
255 51
619 132
181 43
841 60
290 136
420 135
935 91
101 2
342 139
573 131
486 69
357 43
369 94
327 36
448 81
47 115
411 123
168 35
1162 12
1167 55
1237 5
817 99
1139 95
863 122
115 44
721 104
1146 57
957 59
920 16
915 35
687 29
357 37
301 114
502 127
792 65
998 34
231 36
898 52
533 105
131 16
1174 77
956 48
1070 103
100 71
1006 36
963 130
294 139
1235 65
853 46
548 25
237 37
477 44
1188 57
1080 20
1132 51
769 114
660 17
1122 131
552 121
513 14
0 67
701 73
502 61
630 14
898 58
388 23
989 120
457 48
997 54
621 123
974 136
1018 123
498 16
49 30
1138 96
920 80
1249 19
293 30
960 21
850 124
205 44
954 118
612 118
1103 30
1093 87
21 132
238 69
1154 21
988 56
965 51
1192 87
824 5
226 79
277 33
388 77
1027 139
648 55
568 19
128 79
180 121
193 96
77 123
313 83
321 129
136 74
837 96
313 27
754 116
571 122
231 103
338 94
1095 22
1167 103
1130 48
1153 24
618 124
288 116
769 3
861 10
60 36
536 15
1008 123
99 2
814 97
772 47
1131 58
861 95
942 69
338 109
287 103
835 57
568 42
245 39
910 132
366 57
171 127
1175 131
1012 113
855 16
725 120
708 118
197 104
822 66
794 74
241 30
352 35
572 65
1196 75
1174 72
72 93
454 6
1088 45
989 80
826 52
974 126
859 29
777 25
585 87
510 19
877 50
633 55
188 31
605 97
318 13
433 68
709 116
452 90
586 126
1197 2
935 6
79 13
169 38
231 90
877 94
196 46
869 27
1124 46
511 107
1062 107
1165 34
381 119
274 39
630 33
594 47
801 96
918 26
1248 86
405 1
146 111
660 61
686 79
1141 25
628 93
1229 50
297 27
866 62
670 125
337 104
1159 18
407 123
878 38
152 113
26 53
836 60
1207 24
869 6
365 38
226 96
167 124
786 93
292 88
817 11
560 30
904 61
219 87
204 51
305 37
661 83
48 120
347 53
824 131
222 70
1080 32
450 92
780 41
356 78
660 124
501 116
1174 71
969 116
167 27
779 92
111 19
201 122
1202 29
1217 46
768 119
1075 139
461 86
731 129
1072 16
695 41
215 128
1056 9
21 41
1178 75
1205 15
124 122
301 44
932 105
106 37
180 120
313 96
1071 35
995 48
1161 19
122 66
811 105
299 24
419 29
334 65
201 20
749 134
150 110
408 68
868 122
182 56
458 76
1150 86
255 95
992 69
1139 139
136 46
215 35
191 45
312 130
512 38
263 33
602 36
4 61
206 71
938 116
857 5
440 104
1245 89
221 123
495 102
667 120
907 99
951 132
144 36
100 1
885 111
907 78
128 123
286 108
344 3
68 103
561 40
799 122
287 63
702 122
446 62
909 94
753 71
898 129
272 102
717 55
161 119
399 135
803 87
1048 136
771 72
1099 120
329 34
543 134
1013 38
222 125
1226 0
1042 102
853 31
921 59
467 134
679 26
430 21
1017 119
220 72
635 56
91 5
117 108
1087 96
576 101
898 36
212 123
930 52
1028 35
697 116
154 25
741 54
1220 112
990 42
128 20
220 51
247 103
624 14
1099 34
260 2
630 127
318 107
868 55
679 14
468 73
1248 133
655 8
171 117
147 22
85 55
732 116
873 134
36 58
524 128
703 117
858 65
1112 130
569 2
175 101
105 139
917 78
227 89
596 91
1127 119
12 61
411 30
14 67
1094 28
143 121
1175 102
569 133
889 110
45 128
495 38
490 40
32 46
581 88
873 49
247 65
453 74
135 96
517 128
698 23
17 111
143 103
416 20
684 138
393 131
839 99
203 42
220 2
1071 46
932 62
694 26
81 98
927 134
1199 15
771 42
435 8
969 80
120 130
949 17
1034 120
986 37
556 37
67 34
1100 96
276 59
431 136
547 47
343 126
287 117
712 43
40 111
1123 129
1027 120
379 126
369 53
508 112
117 112
789 14
532 9
32 40
983 138
206 2
1230 107
808 60
230 78
270 123
574 15
1063 135
812 49
386 110
590 111
479 104
154 51
421 34
494 13
963 46
763 95
904 102
1032 97
1168 131
528 110
239 68
657 95
670 32
1244 84
1052 55
746 90
1175 137
452 0
727 120
807 77
95 78
113 12
382 53
59 122
440 22
200 131
178 68
951 21
162 31
1170 5
105 9
881 92
655 85
301 43
960 63
579 84
65 106
307 72
894 66
259 66
672 20
138 22
1219 68
671 139
341 28
250 53
1163 39
1181 98
1153 116
1174 87
1222 10
299 118
29 51
66 65
1184 92
74 123
4 60
1237 43
759 128
1115 118
96 59
1038 99
523 91
269 134
732 29
1186 138
1212 120
602 93
335 75
437 45
637 122
145 124
950 38
172 59
294 84
963 100
287 78
898 35
1158 2
989 78
464 82
630 134
1025 12
119 8
799 117
74 118
1204 21
349 18
629 21
251 83
748 98
968 58
200 109
61 64
40 15
386 27
1137 61
272 130
721 103
406 79
219 86
807 97
831 110
28 107
833 79
1222 125
525 72
357 122
495 135
953 75
620 126
435 54
332 136
15 89
949 52
26 105
677 125
1184 86
831 50
33 39
185 51
698 115
227 102
1066 14
344 139
897 46
1033 66
1117 26
7 97
837 49
998 119
1192 107
1175 60
832 114
1099 44
568 41
909 133
913 135
1139 54
1106 46
699 8
1084 95
772 63
819 91
764 123
688 90
385 106
1103 101
91 56
1144 92
159 25
122 30
995 136
85 137
121 98
800 137
147 98
779 33
1070 123
64 95
1229 71
325 95
311 91
492 77
588 130
637 83
88 58
424 6
611 137
975 4
913 132
1216 72
141 94
1232 125
447 117
1216 108
905 16
429 81
545 83
741 56
654 61
742 113
772 105
421 90
121 79
1137 11
1087 25
592 130
958 124
1203 110
399 119
133 95
1179 138
128 27
393 31
105 37
312 95
173 82
228 91
906 134
855 34
1204 127
1141 139
1085 135
1110 1
859 80
203 73
212 6
968 33
987 73
871 97
1162 10
863 14
802 26
1114 130
1075 44
1173 115
1230 108
376 28
1007 134
1241 35
115 53
407 138
779 86
567 53
1232 13
748 5
1242 25
104 135
583 106
484 46
1106 64
570 36
156 39
938 75
1039 31
237 89
939 66
64 54
173 32
423 54
1017 103
454 117
649 91
291 80
222 20
1086 87
173 57
32 75
846 88
516 128
1135 1
414 80
545 51
74 105
198 91
535 3
1014 76
904 46
910 18
96 100
173 66
924 86
364 81
948 78
527 22
281 22
647 124
1010 121
63 91
224 57
517 13
753 39
684 137
1025 134
901 73
793 130
900 123
138 33
803 80
1155 97
110 123
462 74
123 54
160 83
1027 36
2 108
110 122
343 124
78 93
51 90
1028 137
1190 58
859 58
502 139
576 98
932 36
1013 37
1087 33
242 6
12 27
804 80
807 39
994 63
426 72
1133 28
894 17
15 75
459 40
341 112
595 106
343 67
100 92
170 101
1209 120
5 5
762 97
882 1
733 96
71 110
957 125
171 58
1037 92
564 29
424 44
449 131
1205 70
1247 88
1042 74
1018 56
461 91
929 45
631 75
381 103
38 28
455 82
1050 81
881 45
825 135
334 135
1116 112
370 107
869 127
601 114
497 72
225 67
505 42
382 134
646 61
767 80
1113 27
443 96
375 90
649 131
820 42
918 54
796 30
702 79
392 15
541 98
341 44
95 51
369 35
804 113
802 96
1076 8
697 38
572 138
794 41
983 49
1197 79
634 41
560 54
986 102
965 90
302 4
740 15
985 69
721 36
45 70
404 61
123 63
71 83
41 99
1129 46
215 130
374 4
537 125
436 31
235 119
284 90
300 123
225 78
799 98
817 97
932 2
963 82
264 82
283 31
1241 44
673 58
1146 107
1217 77
1035 129
587 112
869 60
754 65
551 135
914 106
1028 110
88 60
675 89
311 137
1163 106
898 87
79 105
172 30
1027 108
923 30
938 62
1070 1
513 1
655 51
427 49
610 120
473 132
836 9
693 67
1149 136
207 64
406 28
1212 72
899 91
636 109
836 93
926 48
478 82
88 80
1178 30
1236 47
98 120
1045 38
349 60
593 135
323 12
564 34
1220 124
1161 88
1027 54
825 110
1119 132
874 66
1076 87
260 132
584 126
420 83
900 66
98 73
904 126
225 109
513 15
736 124
960 69
369 103
947 32
996 21
618 60
569 98
522 65
660 6
718 48
502 53
417 83
1150 66
463 52
99 125
285 132
854 115
1026 81
712 90
371 36
811 73
10 31
822 67
788 83
527 67
210 46
257 53
1058 8
1140 51
1170 29
98 114
805 43
634 39
64 122
838 8
272 23
1146 53
818 14
257 25
53 110
1164 86
1063 20
532 36
9 0
215 44
291 110
824 100
1070 91
37 38
812 14
599 102
525 128
440 28
115 5
429 108
1035 128
467 42
314 28
600 124
229 58
114 97
1149 19
921 114
24 77
954 83
1235 72
283 95
354 94
674 93
115 73
1197 51
570 101
43 84
731 44
826 85
1200 138
802 15
638 132
310 10
1112 136
1001 51
991 121
88 59
183 120
271 20
424 27
945 17
948 129
696 54
1122 112
97 91
195 137
103 72
1213 47
1166 25
864 131
1108 114
2 96
471 16
197 131
238 78
334 84
365 100
153 37
947 105
751 29
831 103
104 27
781 139
187 84
739 57
1119 75
949 102
932 75
548 84
689 45
652 9
1087 43
1018 90
979 72
1198 32
489 132
720 54
885 48
395 82
367 93
369 75
1133 23
1041 15
223 139
703 15
697 136
701 129
329 76
1245 17
330 83
1084 126
666 132
1041 37
976 70
1144 46
964 125
538 70
800 21
96 70
655 88
489 32
1032 111
1170 6
443 25
411 136
800 25
880 57
808 92
592 139
1070 93
875 129
640 80
1126 118
410 59
1045 134
1086 18
215 12
1223 136
576 131
1085 53
497 139
647 96
15 116
174 109
130 116
462 6
620 82
725 43
513 52
887 126
1163 137
722 35
751 38
497 70
58 83
878 88
814 5
473 48
1142 32
1120 94
703 104
133 101
906 95
828 76
943 76
1090 103
717 81
624 31
47 64
732 15
39 86
361 137
194 68
819 79
446 60
619 118
703 39
970 94
1137 131
636 31
901 124
198 94
1187 85
799 90
1187 66
1065 7
786 74
154 37
1091 87
602 121
507 5
835 112
895 88
1125 40
669 28
1206 59
1041 65
72 9
1199 68
843 81
857 68
368 25
1171 122
1200 101
167 82
161 98
1113 79
115 98
1154 117
1178 42
746 100
610 68
846 89
767 42
489 123
593 1
1229 14
17 132
704 91
1048 107
291 124
827 52
101 123
764 68
752 100
29 1
684 14
338 72
978 94
1132 123
169 58
782 9
28 32
503 81
400 10
1007 78
401 6
1076 99
189 9
392 122
1107 65
461 97
721 18
239 30
798 133
1087 75
1116 17
182 68
791 15
1153 58
11 41
541 64
204 20
499 129
975 106
833 5
651 123
263 94
248 72
622 119
966 139
915 28
776 103
960 138
347 94
863 114
249 22
887 40
724 110
689 40
489 105
259 98
73 20
411 61
1241 136
671 27
721 34
270 4
453 137
794 2
385 56
631 53
134 64
523 95
447 129
634 115
136 91
635 105
492 134
1084 37
1095 76
288 126
667 135
230 133
686 138
837 122
1175 76
612 134
171 102
269 60
459 139
270 32
10 5
660 43
915 52
588 119
322 29
763 48
135 15
1191 45
824 55
709 82
340 25
574 22
484 0
38 101
74 69
297 50
26 25
888 29
1059 11
921 79
1130 47
568 0
407 28
1052 29
565 64
1142 43
1210 31
594 137
36 28
153 135
1041 13
30 138
438 29
792 117
1245 9
303 38
1181 51
749 68
804 66
104 39
1003 92
1189 53
1047 89
1242 42
311 114
16 20
259 123
307 138
333 5
640 96
428 88
1183 47
1003 54
691 138
1042 112
39 80
860 127
1091 78
798 93
223 28
873 125
506 138
754 25
1070 24
1014 27
453 106
400 106
0 80
1181 120
225 99
400 37
385 15
146 134
838 6
892 81
984 1
965 53
483 18
149 127
1138 2
405 28
1113 81
48 107
738 39
1149 20
487 81
571 74
425 116
472 84
548 138
280 66
82 74
906 37
634 113
479 101
1016 91
662 48
260 131
925 43
347 32
385 26
364 12
929 71
1120 71
892 54
868 45
777 110
520 59
869 17
117 51
489 122
701 96
823 21
928 18
814 126
1121 62
700 105
653 129
280 89
1114 89
705 131
386 90
1158 75
824 70
800 78
985 22
953 105
339 75
191 128
1188 123
510 138
129 63
740 67
4 42
13 60
398 130
828 111
1233 62
28 69
780 15
1007 49
38 53
676 87
73 104
1123 116
122 92
372 126
631 19
63 90
83 75
573 92
393 85
668 19
855 4
204 14
909 36
335 131
666 44
503 28
628 115
767 76
87 111
325 66
206 24
341 8
732 35
537 112
42 67
1135 90
77 3
541 12
963 111
729 70
182 18
314 68
376 10
857 115
1031 91
184 106
397 127
834 67
705 128
124 106
901 67
293 55
383 52
675 109
571 67
1004 128
47 21
1043 131
404 29
244 71
679 22
897 106
1186 85
398 51
619 100
7 129
587 52
969 138
247 15
970 130
386 73
768 115
862 28
558 37
1123 64
551 95
524 106
812 92
911 136
771 97
27 101
1246 22
735 76
875 53
921 115
398 60
1040 109
441 55
240 109
134 34
478 34
493 9
124 74
194 59
118 106
276 33
812 116
912 71
1044 46
575 72
774 92
459 67
1029 42
768 23
469 45
183 21
896 93
983 118
703 111
121 100
772 135
607 20
1140 42
1069 139
455 18
615 8
15 25
73 66
3 108
685 79
383 55
1222 130
202 62
614 54
247 81
1026 90
222 45
3 125
642 5
496 91
345 139
483 30
453 139
1101 106
464 106
448 67
710 28
1154 97
435 81
863 69
803 37
190 87
866 32
328 60
310 2
721 8
196 113
357 49
489 90
1035 42
1000 136
380 77
1032 121
1164 115
151 28
962 132
710 116
973 47
568 108
988 57
8 108
1250 66
825 79
270 125
250 46
1019 33
424 128
476 138
1230 71
1157 131
294 110
28 125
582 31
742 76
470 51
855 63
137 81
183 119
468 64
1130 88
366 40
860 30
100 50
357 36
760 71
100 66
527 15
622 32
1172 52
552 138
853 70
242 20
977 23
526 25
877 91
968 7
908 9
990 20
430 127
964 137
21 88
107 65
1109 67
304 40
1142 21
722 28
932 90
526 36
222 139
385 108
450 8
468 65
819 31
178 128
622 50
273 46
654 131
1001 44
277 134
417 20
228 8
175 103
1129 137
107 102
11 55
111 79
1013 85
1124 23
1028 39
825 56
673 70
270 88
1235 48
349 57
512 106
788 124
1148 67
823 33
973 91
808 22
576 35
794 46
721 70
817 0
402 99
6 20
828 38
958 4
520 111
450 43
337 73
1123 53
383 93
597 121
930 68
993 15
1006 123
726 118
322 66
943 85
376 93
308 132
970 1
988 128
1232 64
443 29
239 91
926 128
95 106
1037 68
1094 99
344 38
1143 130
361 84
1031 109
668 14
392 31
572 17
996 137
244 99
239 22
584 65
210 113
40 30
661 136
495 18
340 89
19 66
689 63
944 51
1047 61
923 123
646 105
746 106
1177 47
520 120
644 31
828 137
797 24
534 102
372 67
51 52
1234 10
1100 30
1050 35
156 70
1087 59
1121 23
634 122
1171 20
104 24
666 3
343 92
77 14
586 22
688 20
766 18
498 119
1063 17
259 74
801 13
437 88
1075 46
659 120
773 69
1153 71
1143 81
741 14
4 110
1022 69
1187 26
323 29
710 99
436 80
906 91
1218 42
328 46
405 51
1218 66
881 19
595 95
146 104
441 92
600 71
1 25
74 112
264 39
798 26
1226 123
928 29
473 99
428 87
645 139
384 63
534 81
1097 109
480 108
380 75
287 23
124 60
584 103
801 45
266 120
781 20
938 11
905 69
916 117
794 114
448 89
1136 87
685 60
516 30
538 97
745 29
109 94
1212 13
418 77
364 121
1063 102
888 73
708 34
1218 119
1007 127
134 108
663 83
811 106
143 97
643 77
448 66
701 59
384 91
656 79
1153 65
628 83
560 115
438 105
1213 81
935 79
970 87
261 56
474 66
181 71
654 94
44 116
157 76
962 136
153 31
1121 91
939 124
107 89
459 32
931 93
27 112
550 14
714 41
931 10
59 112
277 127
802 4
455 31
681 112
750 88
14 134
42 55
125 55
761 10
1112 19
252 105
1090 79
1148 132
201 79
1106 131
502 65
763 25
1098 52
140 134
33 44
266 62
990 35
140 114
479 117
839 48
1250 27
674 9
763 71
784 91
965 16
945 1
962 3
590 68
328 126
592 27
184 89
733 84
528 0
1156 10
183 77
290 26
1042 13
324 29
1134 109
1223 121
1218 117
564 89
74 65
138 81
281 45
139 117
98 31
390 96
443 64
992 37
1102 133
1140 98
472 17
640 40
714 62
181 70
1139 44
1157 38
225 18
972 25
573 121
1240 89
543 47
1203 93
1230 114
229 109
368 14
115 19
1023 71
131 28
287 101
111 121
705 77
719 35
1242 66
342 130
284 137
640 48
178 104
245 95
598 40
278 93
1231 74
207 33
235 76
962 2
700 108
553 110
1223 14
585 109
68 7
237 101
429 68
584 35
836 95
819 121
1163 3
332 12
1037 4
425 56
324 115
124 2
237 25
628 3
925 133
622 84
408 45
931 8
664 43
18 64
1160 113
664 130
1245 8
444 77
880 27
889 65
73 7
384 98
1100 97
1133 133
1101 0
689 36
512 6
800 33
680 28
798 127
699 59
944 13
843 75
1000 64
48 113
487 5
241 62
171 126
1230 66
516 88
159 99
711 21
911 98
1246 34
761 134
422 66
573 108
399 7
981 54
874 123
1036 25
518 58
749 91
1067 93
684 92
293 5
12 86
948 29
435 129
998 12
223 111
846 84
1138 65
1039 45
620 128
480 54
92 65
1009 76
319 80
1116 39
27 117
567 113
1035 84
480 64
515 67
250 96
744 57
58 70
1032 64
384 1
822 75
29 128
94 62
1215 81
177 70
72 35
841 70
1224 32
288 37
573 21
811 79
739 29
1250 45
898 64
117 23
170 31
365 107
1127 113
53 50
1240 30
1205 8
422 124
550 32
487 60
1199 10
5 60
742 72
202 22
804 11
266 54
235 116
437 99
199 77
444 34
130 107
679 13
537 44
793 122
1045 31
878 18
691 91
249 105
821 104
286 68
734 90
773 78
1032 73
492 99
548 9
435 62
572 100
426 66
503 78
537 96
1065 96
336 82
691 25
581 16
974 17
959 63
331 55
239 26
1109 44
1138 136
1208 78
1037 54
982 78
122 86
684 15
1242 112
1236 27
117 5
1095 36
109 14
292 65
418 45
119 111
639 125
1118 82
1024 12
1165 51
449 38
966 80
753 58
40 87
598 33
1171 83
801 97
638 120
1233 126
756 10
629 19
248 87
916 54
528 79
81 63
989 0
826 131
247 67
299 99
947 108
465 73
1091 111
215 54
339 20
484 73
431 74
6 46
556 80
764 3
1075 71
1199 41
27 123
1117 0
276 95
477 77
300 51
325 16
821 19
591 100
785 100
908 99
1005 137
735 29
1222 57
446 136
800 67
616 33
147 85
535 118
1090 33
561 85
558 34
537 104
901 53
1191 96
1091 69
895 61
98 39
1093 133
38 33
648 108
499 15
413 63
289 105
582 103
395 7
973 96
247 28
458 132
862 24
911 41
1011 130
520 86
1185 46
853 131
4 62
922 94
87 37
72 61
1167 31
173 10
786 61
218 95
880 88
236 121
1037 129
664 94
738 51
861 126
954 116
840 138
896 8
1189 40
578 36
296 107
1056 8
928 53
737 127
764 71
1215 86
44 84
523 25
839 46
1069 98
1110 57
1100 92
66 101
803 65
921 78
1213 29
392 21
393 49
6 39
52 85
949 24
243 63
1154 80
835 81
4 84
347 134
424 37
782 66
220 31
980 127
1049 77
938 91
718 100
1203 33
960 117
827 14
912 36
1237 16
252 103
837 33
869 53
1170 19
702 48
608 114
467 79
337 107
79 139
251 19
1059 139
406 0
951 134
542 138
1154 71
1020 136
255 97
898 54
969 8
897 12
1015 72
1206 134
1089 22
297 71
1100 91
589 36
805 20
1225 122
513 56
668 23
356 49
421 61
573 125
1237 124
778 119
17 80
451 100
663 74
1146 138
1154 52
828 88
522 113
797 137
1034 137
1239 21
825 19
1015 108
899 50
437 98
189 112
1180 16
657 85
401 82
278 46
512 107
470 42
88 135
986 27
501 130
824 69
1011 52
1232 122
1235 117
634 72
93 72
929 57
1124 102
947 19
521 62
438 11
763 107
508 34
417 8
264 74
763 98
1140 82
1221 20
285 116
1024 74
585 25
734 82
1234 94
160 33
363 112
935 72
192 39
640 128
1170 62
773 133
771 123
779 129
60 6
311 129
520 80
1191 14
636 121
968 124
796 128
965 23
1164 71
386 126
748 18
811 85
1119 97
561 20
262 72
614 82
808 68
1015 17
1200 35
1206 57
705 5
328 19
414 8
738 32
502 100
1123 35
424 19
586 48
847 30
477 35
416 52
708 72
1202 87
819 113
1186 134
1217 134
976 30
823 92
805 44
676 137
895 117
583 43
413 105
177 60
667 118
997 46
1226 88
895 80
72 127
588 23
1198 15
751 20
630 60
259 136
731 40
780 28
1090 127
899 137
340 80
505 52
1000 108
731 106
345 21
352 3
356 65
458 106
1142 97
938 104
759 26
901 88
1117 91
1005 0
924 27
751 58
900 47
971 83
201 124
374 122
898 105
1217 126
771 124
110 30
817 16
906 39
427 98
1015 117
773 98
570 21
803 41
323 54
895 135
579 135
1024 133
366 29
22 20
49 59
1148 117
436 123
923 79
307 53
675 77
1192 21
855 97
686 92
812 21
213 47
595 35
67 63
431 103
53 43
243 127
416 11
1088 80
315 28
1215 72
901 102
421 123
482 117
127 138
1173 136
191 6
1132 111
407 27
1056 71
1009 25
654 77
424 66
868 54
93 119
333 14
595 8
201 6
439 64
748 118
1025 76
123 119
958 89
663 87
250 73
106 92
873 21
1124 39
751 100
690 91
113 75
141 84
184 107
149 130
791 90
974 88
983 101
916 112
1216 87
717 116
784 104
514 105
987 6
1109 26
185 82
444 60
676 41
1107 117
134 72
1010 26
1007 0
914 70
541 78
1116 27
117 56
198 77
866 86
476 21
533 23
219 59
558 22
743 127
204 89
163 38
333 80
425 131
350 133
201 112
1115 71
1025 58
1233 53
913 29
870 8
906 52
664 74
410 68
666 110
416 16
832 7
118 67
938 100
202 28
300 24
1172 10
536 88
132 75
1019 59
644 38
836 103
589 28
150 81
528 38
450 31
944 64
984 132
525 68
123 115
1212 45
1245 66
141 129
1163 10
59 121
674 44
655 52
1157 62
1166 79
66 22
702 61
426 83
815 115
275 128
1135 82
1230 27
931 67
397 98
217 41
1065 128
147 113
5 108
575 2
83 67
1131 138
515 45
178 59
677 42
1061 64
49 15
79 25
1184 115
407 94
225 12
500 98
906 115
255 100
949 115
1020 51
276 26
304 60
651 81
61 5
318 78
429 14
1213 66
583 123
1100 133
1149 101
379 116
837 73
25 121
155 133
275 10
795 100
778 116
1139 82
446 110
243 111
1036 23
167 125
259 45
385 74
506 119
405 49
113 37
389 55
739 16
1130 120
342 84
106 60
1201 0
72 119
795 94
823 93
624 61
502 77
890 105
612 5
432 66
575 117
1051 111
365 123
368 117
287 138
1004 62
1062 62
762 69
335 63
347 46
1172 116
916 86
551 54
1084 105
75 53
832 126
1247 21
1121 102
1171 118
117 134
291 101
175 52
301 51
1090 41
319 89
400 130
1017 67
1248 15
950 23
673 27
500 76
1128 94
711 108
706 100
263 44
734 41
282 101
490 61
474 78
1093 134
251 75
1140 56
993 133
599 98
325 97
602 22
415 29
598 79
975 29
709 114
81 54
1215 125
162 112
658 97
140 112
417 14
594 29
262 106
719 120
221 93
103 57
862 113
1223 110
416 111
549 109
660 89
1196 69
112 67
1235 45
401 79
30 111
143 122
146 86
576 28
184 5
263 79
985 63
9 127
1 23
503 90
612 16
725 93
840 125
293 23
1031 102
782 4
538 123
621 76
643 93
248 88
93 33
78 79
753 117
724 40
464 40
223 85
811 77
704 36
468 119
1207 64
749 16
772 75
146 79
742 107
123 129
1110 17
584 122
749 70
507 91
477 102
708 125
401 114
431 1
243 62
1217 70
540 37
153 9
942 43
874 130
857 81
1087 100
719 139
1063 33
30 42
719 46
197 75
95 56
187 60
958 33
187 22
591 122
958 47
1151 77
88 48
1203 54
283 129
546 105
741 30
125 35
481 95
53 130
20 57
159 89
556 98
335 100
458 16
615 112
73 127
756 78
1065 122
421 29
700 26
363 13
399 5
181 13
1184 79
768 114
590 8
892 122
552 11
354 49
721 139
342 40
687 50
944 71
1013 66
605 48
145 74
952 16
669 41
1043 1
824 34
182 115
539 17
633 110
1058 115
495 22
510 28
816 97
980 78
123 128
269 56
188 116
106 74
1236 18
420 45
1050 0
209 89
908 126
1112 119
663 72
809 69
463 135
250 13
895 102
733 124
1226 29
748 7
1128 113
1033 30
8 9
995 106
1085 6
1212 117
745 25
337 12
235 73
666 75
233 92
635 24
25 114
16 138
929 112
749 93
994 4
341 65
242 64
1040 23
899 55
119 134
320 133
1157 127
303 102
452 99
719 97
289 117
342 27
957 56
351 137
727 56
1100 138
873 34
800 20
586 12
1234 138
697 93
521 104
11 66
94 36
906 44
943 110
68 54
156 117
368 119
578 133
318 133
588 78
248 113
1197 130
996 54
327 66
458 77
207 46
1056 104
71 56
916 131
750 87
272 40
636 135
432 100
266 100
1075 74
406 30
453 33
134 111
1102 30
1025 139
484 37
747 56
143 127
14 124
185 127
122 51
226 10
40 53
905 55
247 90
676 139
381 37
773 59
925 84
34 78
1248 83
370 139
323 22
332 52
73 18
1034 37
106 97
1059 59
436 95
727 37
1097 94
661 134
920 136
1152 8
366 113
469 100
1145 116
984 2
253 26
199 26
743 24
662 18
501 30
247 119
651 27
26 28
585 84
549 50
1096 116
1092 111
275 134
335 107
921 24
351 129
963 115
191 39
820 106
620 83
587 136
52 132
588 53
1172 57
687 20
390 8
525 114
447 15
660 22
140 5
53 97
215 56
888 63
402 93
1003 96
104 68
1000 90
753 9
15 93
82 15
1179 84
1035 36
942 100
30 83
1244 22
621 136
930 31
691 83
997 3
647 27
486 26
931 47
940 5
1196 48
1015 136
257 84
283 6
130 95
474 8
1223 135
522 135
115 132
441 75
135 114
998 115
1049 130
619 129
795 97
459 76
42 15
274 48
650 137
475 82
599 77
1063 52
508 10
299 126
257 81
618 38
618 13
888 60
601 108
150 55
630 113
751 31
328 13
983 40
976 10
1050 30
53 102
620 34
776 126
448 29
189 139
67 102
1 97
1116 67
282 92
68 3
735 28
978 122
667 21
1073 110
709 38
257 93
73 72
330 120
499 17
524 42
732 46
573 28
506 126
907 122
998 40
963 15
613 84
1247 95
97 74
782 129
202 8
610 37
653 126
756 58
1061 26
482 29
1139 46
1084 19
34 76
542 49
210 99
888 132
72 36
930 129
597 52
1163 59
85 73
745 55
1041 85
1160 85
455 132
1037 104
478 40
983 65
313 52
125 59
1139 77
510 37
1244 87
315 77
1087 24
643 39
1075 38
198 0
1147 88
33 96
1053 79
150 138
757 122
610 34
1108 137
83 3
1248 97
632 16
820 86
1104 113
433 96
607 47
426 20
1058 20
915 23
779 18
540 55
476 106
379 100
778 60
504 49
1172 51
218 25
13 39
869 96
1071 113
1176 128
105 109
1011 26
797 68
896 44
839 44
991 133
276 87
761 133
1047 17
201 44
544 54
455 114
824 65
674 6
350 37
221 56
257 69
819 4
1023 40
398 71
550 68
1233 136
624 136
133 112
1245 19
1033 28
722 37
1047 25
1128 91
283 126
988 124
306 80
458 103
179 100
11 6
1033 107
350 69
440 29
1197 118
199 65
1014 98
220 117
48 82
417 33
700 43
1170 64
130 57
466 27
1113 99
456 93
1025 113
1121 85
929 81
111 62
970 10
752 8
886 91
785 105
827 63
1163 4
277 111
959 18
1083 98
505 83
226 80
335 134
732 112
726 7
412 88
233 97
1185 38
761 83
633 94
105 40
60 137
1166 131
1004 125
632 27
573 37
968 60
1080 35
104 37
307 106
188 99
354 10
794 36
405 55
939 131
1105 5
619 24
276 135
889 60
418 85
489 20
89 102
835 52
39 35
323 24
661 11
1137 81
1061 128
514 2
552 31
714 52
1166 12
1176 98
302 49
1006 58
53 121
919 22
870 19
696 38
304 44
173 70
