140 43
294 101
1091 116
998 74
601 109
459 25
1050 84
527 43
1096 51
445 90
1182 11
699 6
759 57
846 25
1160 72
1125 114
944 39
844 101
17 94
58 95
69 104
324 65
873 15
1055 55
450 61
395 125
241 67
783 121
658 90
81 78
531 4
293 77
1119 76
387 41
1184 56
1225 57
42 123
116 72
699 127
505 33
887 98
93 88
293 113
1132 131
951 119
287 39
1038 87
903 42
775 122
269 21
739 56
1053 103
162 44
885 110
1168 53
810 116
174 18
790 21
950 10
822 90
896 39
399 136
1178 103
680 6
397 63
820 129
418 6
241 44
429 15
261 22
52 28
112 79
863 127
635 120
105 40
646 129
1083 130
1022 120
886 110
62 78
714 4
168 59
454 44
246 15
782 138
797 38
935 88
471 133
908 134
881 117
329 49
429 136
927 4
1195 47
66 84
381 59
422 97
696 71
924 78
488 42
1239 90
506 90
1218 67
98 36
1018 122
842 45
351 73
96 112
625 47
1121 134
511 25
626 12
631 127
893 127
47 70
510 66
1025 17
259 75
592 135
269 119
639 67
183 116
772 102
450 51
235 126
361 122
326 101
869 120
902 68
1049 138
1163 72
222 43
417 139
1183 50
409 135
538 20
711 91
314 126
1127 6
817 109
421 109
617 84
837 87
347 80
452 96
299 3
768 73
369 98
999 85
622 135
877 16
686 19
77 75
83 6
124 7
378 3
230 25
611 125
403 96
360 134
722 78
1224 96
514 49
956 16
299 124
593 113
742 56
647 84
941 36
1025 115
831 21
39 84
636 74
13 32
809 82
191 69
669 71
78 12
1103 71
138 63
32 45
1109 114
150 37
827 136
672 113
172 55
756 112
280 3
16 73
398 138
1156 82
136 138
948 53
546 122
229 37
820 96
431 135
517 95
154 43
678 12
851 120
937 123
355 33
206 53
664 114
46 101
57 110
600 129
486 107
250 96
251 61
284 9
294 134
127 25
824 102
11 79
636 51
508 131
837 41
891 12
454 11
252 25
680 94
849 15
303 107
337 20
1014 119
860 61
692 68
160 58
685 29
440 112
810 60
809 95
715 51
1024 132
830 38
1184 121
284 130
1136 81
245 22
163 69
68 60
665 50
88 75
47 37
591 21
45 113
952 0
916 77
1191 16
1178 83
600 106
961 85
1236 24
726 102
80 70
1041 77
141 86
227 89
624 54
1107 59
455 133
341 111
749 85
1064 97
185 92
1111 29
970 53
574 53
1103 25
1116 107
499 139
1165 0
577 58
255 44
1007 57
146 137
1140 92
489 131
180 50
336 117
410 66
516 84
1040 90
421 112
44 125
328 33
300 51
1005 132
916 54
909 15
599 118
332 3
277 67
123 9
215 92
766 115
176 21
1114 75
1032 122
737 88
1051 135
509 81
730 49
884 107
647 51
364 71
633 116
807 3
721 0
585 76
1021 112
658 60
1128 95
122 49
596 85
396 60
351 138
616 63
972 76
495 2
240 41
896 117
669 38
782 95
91 98
272 110
354 63
936 10
257 130
1244 126
835 107
350 29
323 75
189 75
570 32
52 106
421 89
785 106
1133 29
158 124
810 50
1199 11
126 55
841 37
3 70
725 91
362 39
765 127
831 109
757 123
356 108
120 97
349 69
320 42
575 3
593 57
1156 134
612 70
208 66
1241 92
396 37
1093 114
1158 94
240 18
460 58
1230 119
834 119
357 45
416 131
1069 22
1149 131
1175 3
575 124
207 106
991 102
709 124
159 66
441 44
1119 108
621 11
1175 39
470 107
147 91
120 74
25 102
468 34
408 132
294 110
510 19
359 127
480 8
748 88
814 33
586 138
1142 127
14 92
793 59
443 126
738 123
872 123
1100 130
354 17
849 139
50 51
256 119
879 18
214 122
770 111
1139 94
1091 17
126 9
17 139
63 106
1049 20
1183 20
390 55
659 100
41 87
234 73
985 121
1173 92
736 54
1192 105
756 69
522 131
1231 33
976 72
807 114
673 34
800 75
940 6
766 82
302 127
717 77
927 36
591 1
783 22
1245 53
467 51
627 40
204 86
1237 112
632 118
297 134
758 114
1147 75
960 69
711 2
19 40
817 20
689 100
434 139
339 130
186 37
1104 113
405 112
1137 110
123 97
834 109
535 42
358 0
417 86
954 25
691 60
591 122
355 111
160 15
792 112
1067 51
1192 82
178 69
856 133
65 12
135 107
1141 116
242 90
685 22
202 17
274 122
503 94
140 42
1146 51
454 89
938 22
12 122
199 128
675 57
891 90
1098 11
144 12
928 8
935 133
1071 57
1195 92
208 33
878 7
824 36
414 138
958 36
65 133
1110 21
90 77
614 83
365 16
156 22
889 22
780 115
202 138
571 121
825 37
838 56
355 88
394 79
1145 127
158 68
232 17
292 68
378 71
1003 43
721 65
921 90
1036 77
190 20
1224 128
295 73
81 113
1046 121
389 86
1228 18
608 124
319 21
380 37
1143 139
681 114
934 65
329 71
1249 77
275 100
66 106
1099 132
704 97
484 94
213 125
224 134
259 12
841 102
364 28
947 120
738 126
679 40
1053 138
162 79
376 39
1242 37
591 76
583 72
1085 90
1132 22
291 80
1203 82
681 6
593 122
786 22
95 25
564 95
41 54
106 34
261 57
461 82
198 117
736 21
962 104
344 91
231 34
1141 106
116 84
209 132
879 106
766 49
927 3
39 129
495 80
246 50
729 18
809 127
930 8
984 128
1063 43
1103 116
821 101
151 41
250 20
820 56
787 108
948 62
1061 119
255 135
758 81
645 24
590 88
417 17
650 139
487 112
930 44
125 25
353 78
361 36
782 29
57 119
445 115
600 138
372 131
310 70
345 28
679 53
559 137
981 95
579 115
28 92
351 108
1007 4
827 37
729 139
910 71
259 110
124 65
56 10
807 58
539 15
712 86
270 119
430 108
553 62
773 102
1027 98
442 82
557 32
622 49
408 89
1045 115
455 21
574 121
137 120
566 117
1218 43
3 40
801 20
1028 62
160 103
798 131
66 96
475 115
436 7
1228 93
13 90
1247 106
232 128
675 60
802 101
1245 33
870 119
17 60
48 47
960 49
949 119
398 16
786 12
585 108
241 69
985 78
790 131
796 62
976 29
210 81
1217 55
639 115
1122 83
699 129
700 94
262 128
620 65
538 32
1061 73
340 47
809 117
998 53
1084 56
770 9
224 101
298 50
1104 34
982 45
739 58
417 7
744 136
924 103
146 38
851 119
239 0
166 16
312 70
581 115
823 57
719 79
311 25
230 37
41 21
1098 112
1172 61
387 20
299 136
259 100
1111 51
82 138
490 112
651 66
1006 114
557 22
1193 120
85 63
688 133
98 2
369 87
201 131
1102 87
1167 67
895 84
308 77
468 66
1219 114
661 115
298 63
380 102
453 86
217 75
1210 65
1204 134
987 136
1189 91
571 78
88 110
1200 100
623 88
214 69
1066 20
1071 135
380 138
1117 102
667 131
259 77
921 47
116 28
886 89
860 37
242 24
128 2
805 101
690 34
636 63
280 136
219 40
1037 78
459 138
292 110
89 10
1108 138
754 55
1163 74
618 131
901 74
692 80
711 93
1007 92
881 96
739 12
577 93
126 77
537 57
79 2
1030 75
452 98
184 55
196 29
142 58
706 100
894 71
511 4
202 72
1048 129
1195 62
1233 25
637 0
1179 54
905 80
165 41
309 55
917 54
594 38
963 21
312 60
445 95
3 128
89 131
695 90
158 2
709 25
611 127
61 69
121 120
604 88
664 139
227 101
361 101
400 29
856 80
614 138
847 111
807 38
485 24
565 96
1008 28
1237 0
545 38
122 84
1015 73
464 50
1074 122
557 12
809 84
991 124
997 55
1017 33
252 50
303 132
190 75
1036 132
505 87
738 60
370 42
476 60
496 38
173 22
1011 75
984 121
843 82
193 0
1077 20
119 51
977 82
445 72
82 20
446 37
875 34
934 120
826 29
1249 132
626 4
329 126
604 65
403 75
477 24
411 79
529 71
784 32
207 20
1005 0
144 80
721 12
115 53
962 38
424 134
325 12
1002 111
281 85
322 123
18 120
1099 43
39 63
239 88
1051 3
1245 134
743 116
346 71
137 77
386 107
338 67
935 57
280 126
189 87
296 70
1135 2
314 118
181 3
601 68
662 47
545 136
229 16
603 77
348 116
509 70
1220 82
355 12
784 9
5 42
1145 51
466 108
1017 131
144 57
231 125
77 67
432 115
498 60
658 49
603 113
1046 45
341 113
1153 28
615 87
0 49
675 138
676 103
98 126
837 128
63 105
110 100
840 62
826 127
249 115
1215 88
880 18
684 43
743 129
1226 97
159 78
924 24
138 55
781 12
243 71
1136 60
835 132
760 38
733 84
610 130
523 125
41 122
731 11
833 22
659 135
248 6
736 89
1133 54
788 136
862 85
329 116
348 129
549 119
1073 125
181 101
998 131
179 28
1004 25
408 0
856 47
907 92
840 39
162 124
48 102
979 117
542 116
562 94
689 135
167 59
345 96
755 80
1152 45
1138 110
775 58
1003 65
727 18
1236 124
786 67
1215 101
344 100
370 9
475 62
1113 53
167 95
45 69
965 75
514 139
545 126
222 110
834 0
497 86
987 93
953 100
1094 76
275 122
583 9
683 96
151 86
800 123
110 54
290 21
491 11
1147 87
437 40
676 93
280 93
548 136
828 41
606 114
103 51
940 139
732 73
792 124
1047 85
857 104
12 49
167 72
649 75
1228 17
1165 77
715 20
492 128
922 90
117 71
1236 137
470 109
799 19
631 63
316 51
926 60
1000 9
340 79
273 89
891 102
294 112
1200 34
57 56
849 105
231 92
532 20
545 139
746 129
1020 103
1175 126
652 122
444 56
449 22
86 119
932 139
883 134
279 105
1045 16
762 73
695 83
895 108
357 24
1109 37
492 47
925 136
617 20
394 91
224 25
553 84
1027 120
947 11
792 137
242 79
879 105
517 18
39 128
1005 101
891 79
815 120
346 136
1103 115
553 120
157 120
355 22
800 77
545 116
673 36
820 55
497 76
443 105
999 57
85 131
1092 105
32 125
70 88
104 1
130 139
1250 133
560 101
1175 139
853 88
343 103
416 87
1195 117
381 129
161 56
589 15
635 131
1191 83
500 86
573 70
560 137
501 51
1162 56
438 111
418 53
1046 110
523 69
315 40
45 36
332 129
191 90
16 9
81 138
122 139
134 1
147 83
1099 121
1051 81
809 139
361 12
789 81
250 32
377 136
1075 29
787 120
15 49
471 0
677 105
751 54
1233 57
374 67
165 73
574 12
29 69
994 77
437 43
564 84
301 119
92 125
521 122
522 87
1152 25
313 93
278 135
479 125
639 114
76 0
317 63
430 120
135 86
1087 124
993 117
422 36
1004 126
254 43
31 114
210 116
635 0
1063 32
600 42
204 42
855 3
1183 97
423 80
14 61
424 45
120 79
598 81
611 51
880 96
141 22
496 70
32 115
441 134
822 91
245 79
519 53
55 98
1116 43
83 17
679 42
1014 32
363 71
309 100
924 138
817 12
448 29
131 93
1089 62
84 18
485 33
1209 127
523 59
1161 87
992 129
1066 78
335 8
803 113
1019 3
250 50
1119 90
313 106
37 22
788 70
856 125
525 105
1076 128
768 12
934 44
129 25
1249 56
725 50
1084 68
466 55
789 71
1017 78
686 58
1096 42
861 59
793 41
1020 83
351 74
162 58
182 116
805 15
1147 44
59 82
1160 63
456 10
381 96
1240 92
239 12
17 85
869 36
1211 65
875 79
103 8
418 20
658 81
1000 110
873 6
623 123
33 29
798 12
690 33
541 90
588 22
460 102
1244 98
479 115
188 88
785 78
744 40
757 59
722 138
31 104
520 3
211 71
881 131
432 39
103 129
633 29
577 128
603 37
59 59
1133 86
347 117
319 98
190 133
292 1
833 90
611 126
827 16
417 32
228 16
395 93
328 103
301 86
764 76
648 44
1166 119
737 122
426 117
1023 107
144 102
956 17
540 102
10 22
928 98
512 40
98 135
21 68
1182 100
408 68
198 109
86 17
1032 12
1159 116
634 2
789 25
970 100
723 80
1008 63
908 125
75 124
383 11
611 18
423 47
201 120
348 53
1091 97
1124 131
924 69
159 123
775 126
821 93
668 0
171 97
55 65
1116 10
598 84
780 61
750 69
1060 115
924 105
716 76
474 134
226 69
653 136
258 101
446 72
693 29
981 87
201 12
188 42
234 9
770 132
39 62
258 137
105 44
305 69
816 19
526 37
713 43
868 66
645 137
1088 69
986 58
535 122
1205 96
1246 97
883 45
501 129
574 113
990 28
567 74
36 29
1229 44
418 131
577 118
1048 118
644 28
1235 124
307 114
202 61
139 121
254 108
1038 104
531 8
316 83
185 8
882 85
854 103
1197 97
1102 125
1148 92
961 86
1083 75
409 18
745 116
657 3
529 83
1012 51
803 57
561 115
1078 33
58 89
776 40
49 120
69 98
921 49
270 88
753 56
471 78
1082 3
128 4
302 40
66 29
11 93
354 87
1132 89
1070 28
1152 67
574 90
877 128
735 44
1069 69
827 127
149 63
409 139
424 2
926 20
570 56
703 91
1173 126
414 74
65 69
452 100
339 43
607 123
673 68
733 119
579 61
645 6
1040 127
510 47
1166 86
394 15
890 39
206 44
949 88
467 85
869 16
1083 88
175 93
523 16
127 16
1193 76
1039 18
1093 138
521 92
762 118
63 117
688 89
606 136
366 38
835 108
94 104
249 127
302 53
763 119
1192 116
78 16
1143 111
1217 60
947 56
410 80
242 124
725 92
839 114
435 24
148 80
851 88
273 111
643 59
118 88
380 94
1023 51
814 57
866 67
40 25
773 25
710 85
18 86
341 102
352 111
1024 15
378 20
324 49
793 119
397 119
102 85
472 33
1013 122
644 139
867 68
54 45
824 106
382 139
1140 83
374 135
106 55
829 41
177 115
935 59
238 131
512 105
821 37
94 117
288 68
888 45
650 75
1192 129
493 128
57 55
1150 132
941 138
545 138
9 15
885 94
1209 38
772 37
139 124
1200 69
454 136
1060 95
1098 58
548 63
151 98
1191 20
98 92
646 77
210 4
921 16
847 67
1181 92
1242 71
550 109
668 101
373 67
534 21
458 111
1046 132
1053 28
784 132
307 58
1172 128
153 0
1037 83
401 22
1238 73
178 93
244 38
714 73
659 137
497 75
442 139
1039 129
1228 65
1059 107
300 55
86 95
401 107
380 84
1043 19
801 77
761 4
1244 9
15 71
1001 102
67 118
468 133
1139 72
1158 85
790 67
1031 130
105 1
318 19
1016 1
210 17
719 123
519 98
256 133
363 116
409 83
355 112
475 28
448 74
1132 69
1247 19
232 41
63 120
756 47
640 15
96 37
87 68
724 94
1066 123
1153 128
188 120
462 94
804 123
327 49
1119 135
1205 138
320 10
997 109
58 10
1217 112
1142 118
706 82
1061 130
584 56
999 69
758 92
67 95
1072 139
1107 17
172 111
930 55
184 122
948 109
343 115
1013 89
396 41
824 73
456 55
39 32
836 47
942 65
669 19
504 68
1215 80
732 75
1161 109
757 19
267 12
126 36
831 54
964 89
482 49
118 32
233 19
661 51
533 131
380 38
1122 117
505 69
450 133
651 123
1248 113
880 95
129 47
1080 120
408 136
98 59
331 32
1169 85
438 15
264 91
557 115
927 63
1087 15
1128 53
1199 113
489 66
339 121
991 47
245 114
164 40
828 20
525 19
1162 45
91 56
954 16
417 77
255 15
637 80
374 115
261 58
783 134
422 12
743 98
555 47
1038 15
259 134
761 115
325 79
485 68
504 81
81 127
381 10
1099 110
194 4
777 96
628 116
346 138
1023 8
157 122
277 38
698 68
1209 18
1181 36
443 107
704 111
790 34
1218 103
453 120
432 97
614 74
1042 106
1156 128
687 58
271 0
551 134
940 95
1054 80
1214 69
1187 115
303 32
428 63
370 122
1098 123
844 127
394 70
809 20
708 117
167 28
837 2
815 63
606 106
367 53
29 94
303 68
1209 139
350 0
1095 117
764 134
510 138
136 40
147 49
1193 131
1248 67
650 32
638 0
85 74
1159 138
568 79
1184 82
1165 69
1050 2
694 38
391 37
887 124
987 62
974 92
1134 81
202 21
497 55
484 85
537 91
1051 83
844 19
756 135
299 39
1164 109
15 51
289 25
927 53
276 92
530 88
570 124
281 21
966 124
911 45
799 96
1180 53
514 0
923 19
77 111
1157 106
123 78
438 90
908 39
646 119
1015 22
40 80
1101 25
1234 60
623 135
1066 67
314 54
320 134
1012 96
690 45
44 50
1119 79
164 115
1131 53
962 95
996 8
658 129
1141 97
450 100
860 84
1190 139
283 72
611 17
825 126
502 110
147 62
933 68
1249 45
1188 29
957 16
211 83
478 18
633 41
766 76
1176 60
805 4
307 136
286 113
287 78
884 68
710 32
822 93
882 107
1043 61
1162 12
1216 132
1168 92
960 63
709 72
654 136
647 97
681 10
164 92
933 45
228 113
1221 103
254 22
568 69
326 127
761 118
581 8
808 50
914 68
1068 126
14 40
1061 87
274 116
160 94
503 88
315 117
1235 120
240 123
496 49
555 135
126 101
1037 138
287 55
507 58
184 79
681 131
130 108
16 86
190 122
530 78
731 68
1073 97
1215 1
1133 111
205 138
1078 32
701 45
1209 106
920 3
1107 95
1067 22
521 114
44 40
1224 122
305 81
533 88
847 135
848 100
472 78
1223 126
706 16
1174 121
442 86
597 109
926 19
228 126
396 119
703 90
239 135
649 119
818 77
515 39
23 102
601 79
1245 1
431 76
189 134
404 59
913 85
591 34
824 7
254 120
582 65
65 104
225 93
185 20
977 106
916 90
882 97
1216 122
592 115
1208 118
1027 43
603 124
155 34
214 83
415 73
917 91
795 65
50 97
379 7
1035 83
485 25
1082 15
1209 119
545 39
544 74
873 21
1202 80
939 115
871 60
1140 105
11 105
120 12
246 8
186 106
265 21
816 44
89 24
806 116
584 3
330 7
283 75
421 125
1233 3
1247 87
810 86
1250 92
1082 136
500 9
399 106
779 98
88 101
21 11
1154 124
328 82
374 49
434 100
321 43
111 84
1071 126
467 97
1010 116
929 42
1109 9
812 131
973 85
946 131
342 102
890 87
1051 4
354 76
200 18
419 56
741 107
889 91
544 87
1142 42
900 100
0 109
892 96
435 0
1073 28
649 109
59 15
496 16
494 86
830 41
97 41
466 24
558 107
136 118
524 114
570 81
436 1
421 138
959 42
1093 42
328 59
273 123
671 133
171 112
673 93
565 2
392 80
1216 112
497 133
626 18
175 82
538 134
229 53
223 122
281 63
214 73
455 136
59 136
207 34
93 12
198 65
58 91
513 77
259 81
90 123
801 135
534 20
1056 96
102 97
363 138
751 134
825 83
39 77
13 25
555 79
401 21
1198 36
460 107
565 123
640 37
740 124
135 130
578 62
255 83
1120 116
766 33
657 126
758 29
631 74
1156 39
1092 54
295 119
506 73
661 96
748 101
236 69
68 76
907 8
1034 49
894 75
194 72
349 95
623 69
710 74
415 40
5 56
803 36
643 84
676 81
909 54
1064 77
983 3
982 124
1169 130
910 19
793 108
271 32
416 121
342 92
133 98
777 20
728 127
888 116
734 58
954 61
1223 106
518 25
75 93
740 101
1155 51
632 10
858 93
576 115
937 8
602 24
347 63
661 73
895 11
512 130
245 15
405 4
1122 139
96 72
296 97
901 91
33 132
1133 68
965 112
294 136
683 97
1231 82
903 100
694 106
3 109
9 40
150 128
15 83
772 62
683 133
1193 55
1221 37
776 32
675 129
199 20
360 117
1166 101
1184 6
1151 58
902 28
676 94
237 132
311 81
425 103
1222 118
1041 106
899 102
954 38
879 44
960 118
1079 69
222 3
912 41
817 69
502 57
495 18
715 21
1143 90
541 134
781 3
512 107
995 75
841 17
451 97
736 80
1005 125
454 102
702 124
997 121
379 108
863 41
654 47
1169 84
773 4
1154 104
13 136
1212 45
627 66
89 125
701 15
647 44
210 6
365 29
865 123
617 21
917 133
1077 122
609 17
109 89
728 117
775 49
310 129
102 100
357 61
1155 41
1156 6
1015 67
819 92
1227 66
1073 8
367 111
481 96
755 107
796 108
956 97
788 104
56 69
244 40
654 24
968 71
1123 94
128 94
839 106
1160 12
777 131
455 80
683 87
569 65
588 115
1044 66
204 89
278 38
223 102
269 69
479 28
1075 53
1 138
80 53
718 81
911 67
447 112
776 22
508 91
895 122
196 121
237 122
397 111
257 100
457 125
21 89
464 21
449 121
268 109
979 121
214 138
689 139
804 89
1192 85
500 123
587 91
359 84
1130 110
552 133
325 91
1155 54
713 87
848 132
41 103
524 71
297 29
761 127
933 90
302 107
576 118
288 60
327 51
788 117
445 43
914 113
800 91
866 36
329 97
484 120
1061 132
435 78
27 24
286 135
507 103
104 15
640 138
1151 25
365 19
465 106
1054 92
405 77
1226 55
421 36
71 103
823 116
291 106
719 138
661 17
572 125
941 71
892 66
1007 53
878 131
913 9
1172 120
1247 34
924 18
715 24
514 120
1111 110
325 104
525 129
76 37
653 49
1251 4
410 62
1134 93
1209 7
330 39
906 6
100 22
287 77
420 112
735 124
961 58
161 117
825 17
776 12
125 51
279 109
1031 122
1104 106
17 109
226 103
77 123
646 131
492 73
1055 70
295 53
744 28
917 136
1118 126
910 97
741 139
210 94
2 65
190 36
544 119
1068 125
182 32
887 113
242 83
712 112
551 15
733 55
905 18
1240 8
1071 50
1131 101
1008 110
413 50
586 121
55 76
893 129
349 65
1072 131
590 91
1013 45
172 103
810 131
601 137
925 81
1112 87
11 6
225 115
414 131
982 94
1231 124
365 9
436 69
1114 133
1074 60
1066 56
837 4
259 113
856 103
278 126
1049 3
358 6
1190 128
143 81
439 80
886 125
956 41
785 79
388 114
848 135
1008 87
706 51
1134 83
557 71
1081 77
912 119
1032 72
871 118
926 54
529 9
938 28
1206 108
883 92
322 25
455 60
667 59
668 24
432 76
190 134
182 130
948 78
1095 11
490 17
759 62
1094 132
153 103
859 0
444 50
300 122
924 129
817 3
1124 11
386 45
236 137
84 9
284 34
229 98
15 138
1035 82
1047 56
556 84
1193 110
1126 120
92 129
972 62
158 74
790 134
661 20
91 133
713 67
599 45
1068 115
182 22
592 6
724 76
255 92
1135 25
497 34
308 18
937 40
246 43
683 44
1017 69
98 28
331 1
452 111
352 24
138 101
405 36
901 123
692 129
223 59
160 119
530 67
134 67
26 39
531 32
341 51
979 42
543 6
125 18
1245 49
1239 118
299 54
459 43
460 8
36 89
291 50
535 2
393 98
665 111
672 7
1055 37
637 49
100 110
395 107
689 96
858 17
421 16
963 70
669 1
627 121
332 87
1110 89
748 2
18 10
761 84
813 131
699 109
860 63
1041 138
147 41
456 122
148 6
462 53
784 104
1219 32
682 56
977 10
990 29
304 110
215 32
1135 38
403 3
812 22
322 15
703 115
630 131
1139 8
675 53
916 79
936 94
245 60
36 66
1002 39
96 117
585 16
1062 53
248 65
362 87
409 19
488 83
1077 69
440 6
607 3
961 123
384 111
1054 85
670 59
388 81
361 127
293 72
93 47
159 29
427 72
1005 49
840 98
262 121
800 25
336 70
691 118
1061 66
1196 25
1087 118
348 44
589 107
39 112
1132 126
1151 139
990 42
1164 78
881 135
833 58
893 109
530 57
1041 7
644 42
148 104
309 58
1220 95
489 25
876 56
339 80
331 76
928 66
68 111
1034 84
712 33
517 123
952 51
1180 58
670 36
187 68
1245 124
1211 131
1103 40
263 63
605 92
919 139
283 41
557 15
66 43
986 49
648 133
636 79
837 69
777 55
774 129
1217 61
1008 67
982 15
700 100
1029 10
746 67
812 12
631 86
1065 49
72 122
756 117
1231 81
459 10
63 10
968 116
580 120
714 120
943 29
349 107
582 80
623 81
1074 17
627 88
815 22
593 95
330 130
341 139
911 112
636 56
762 132
573 116
177 116
292 103
934 15
0 111
806 95
852 62
315 86
1100 47
858 105
1052 7
452 91
822 39
982 28
941 139
560 39
216 0
1149 25
343 41
913 77
726 71
750 50
316 87
148 94
528 86
92 50
320 57
749 54
1169 119
686 114
847 68
14 130
538 136
726 107
1087 49
865 122
521 83
44 9
1158 109
30 74
660 98
485 17
680 76
1022 105
390 8
1068 72
281 101
960 130
356 15
1226 100
608 87
86 11
810 42
943 77
620 61
789 19
493 106
16 32
713 109
941 116
659 138
892 111
221 92
52 134
591 3
716 34
265 98
862 88
17 33
49 65
623 71
683 122
1212 57
1104 115
501 2
1210 133
1130 24
552 47
438 62
754 2
1039 22
428 97
179 67
776 57
930 115
1116 125
1089 108
243 51
773 137
672 133
967 2
362 8
52 111
631 53
99 43
1058 120
744 73
1084 29
750 4
822 29
708 7
968 83
987 96
619 78
1 65
14 84
724 131
1134 115
497 89
1154 93
195 16
434 69
917 37
749 44
467 66
144 50
600 101
761 18
101 88
176 39
927 87
1195 130
67 132
227 84
938 96
615 80
1221 39
19 55
542 96
877 86
259 73
460 63
614 121
633 134
157 25
1062 131
1088 40
871 42
1107 139
1226 90
272 128
587 103
815 110
378 109
298 0
640 29
89 6
567 45
873 88
1216 45
47 9
148 61
831 91
139 92
463 73
1099 134
1051 94
433 81
65 63
689 7
600 78
68 68
229 22
671 138
919 60
301 47
18 67
1052 95
179 21
393 130
1004 18
686 117
970 25
110 70
565 56
793 100
1062 108
122 44
437 56
227 97
824 87
985 41
1179 135
440 61
601 15
177 96
332 119
83 89
338 50
243 41
431 12
1027 123
370 2
161 8
34 53
802 41
788 106
419 123
539 76
526 106
673 39
987 86
1134 105
462 121
831 104
509 53
495 118
1107 8
682 124
1212 24
1232 39
164 18
438 29
1135 106
444 72
697 109
676 86
1240 128
763 54
185 77
1151 50
77 135
940 132
827 75
418 56
1072 22
547 57
305 115
848 134
2 77
399 42
317 89
410 51
1048 79
74 102
785 114
93 115
622 87
1060 53
45 75
1051 84
1111 135
38 36
23 136
654 39
1083 36
546 97
1183 123
747 87
109 96
383 70
1188 89
813 32
759 61
322 60
778 74
79 73
152 57
233 131
758 56
942 33
842 95
103 21
672 29
572 91
122 34
806 29
751 93
582 135
798 25
1168 116
529 129
508 106
326 66
594 109
1077 114
943 34
889 63
552 112
768 2
727 1
618 94
1054 130
672 65
297 8
188 101
536 24
118 36
661 55
151 33
789 61
599 80
203 80
286 90
725 76
160 118
945 79
946 44
27 3
664 66
132 56
360 63
957 53
286 114
1158 43
749 24
581 68
781 93
844 33
687 49
1001 96
184 103
101 68
1022 39
973 34
59 108
582 112
382 87
220 25
38 134
185 67
555 15
272 72
492 75
1162 49
438 104
392 137
940 122
1155 10
189 37
304 24
892 45
658 107
417 81
839 39
1054 107
421 51
319 3
661 32
43 94
819 97
765 89
443 75
148 41
139 72
294 95
818 101
400 113
943 132
58 4
935 128
1224 2
1169 66
546 87
1053 120
967 80
510 21
181 74
542 53
730 24
71 59
1231 126
508 60
1023 97
1211 68
385 69
962 1
1006 44
925 119
415 97
912 0
795 89
547 24
105 57
84 34
647 111
1090 43
190 15
867 114
136 44
1055 85
1058 90
1059 55
682 68
997 80
51 85
848 137
863 0
392 6
586 100
1061 101
926 56
549 69
1065 71
507 72
299 43
823 49
614 55
982 73
1096 58
204 71
908 7
846 32
193 61
280 66
17 101
478 130
767 4
712 68
289 114
390 17
242 39
433 15
219 55
345 131
954 95
1142 66
337 47
423 50
537 72
223 25
812 11
806 117
758 40
605 127
1092 65
1124 134
627 2
935 118
1204 126
558 131
786 138
464 124
692 131
907 19
330 44
524 138
801 38
1094 111
342 18
561 56
125 20
1085 62
1071 127
991 18
635 91
925 73
1170 20
236 116
709 40
551 128
874 107
994 60
235 57
799 113
845 80
449 80
337 96
897 127
6 68
206 93
576 41
1012 77
1064 124
259 105
896 131
970 80
305 72
105 47
866 139
290 92
878 113
168 66
74 59
1080 68
871 74
329 20
1060 10
1159 132
402 4
651 71
219 68
1151 128
347 74
962 112
680 134
472 105
947 69
316 86
307 117
656 42
1065 61
173 37
1199 61
930 16
1185 126
1219 119
385 36
1112 56
1049 116
425 29
794 12
893 134
1223 9
1154 138
1066 25
447 133
708 88
467 111
218 44
1129 81
761 63
881 16
995 1
786 7
732 36
523 42
718 138
1128 122
187 93
1182 93
234 25
133 122
617 55
965 15
741 121
837 58
869 127
683 0
479 121
259 118
149 66
1109 108
437 124
557 40
67 33
650 88
72 111
347 87
984 113
936 73
560 51
1121 118
417 2
435 50
731 49
1011 103
92 62
320 69
1063 113
3 133
928 68
1023 77
869 19
175 96
409 34
1046 60
1127 134
1058 34
1173 21
676 118
795 69
1064 114
890 78
636 45
815 47
907 130
1122 55
114 85
562 132
997 60
810 54
715 45
694 22
1008 69
243 86
1009 34
518 62
1082 104
1155 88
732 134
577 111
357 108
1235 117
567 67
953 102
100 43
924 75
634 93
1145 43
976 122
800 125
1028 132
410 119
329 131
409 11
26 93
510 63
898 59
1071 130
1158 98
755 10
364 88
251 68
156 59
544 55
1022 94
122 66
1047 38
939 96
456 91
1105 128
1170 108
1103 55
1217 40
243 63
357 85
691 110
901 69
652 39
1101 94
429 110
630 100
842 19
799 57
745 86
100 56
583 24
401 133
843 100
781 125
229 57
921 19
747 132
819 8
597 44
939 73
361 96
302 10
333 114
352 127
1058 24
218 47
259 85
784 50
420 2
526 20
511 120
1108 110
1054 139
1087 87
1248 41
869 100
489 138
758 73
441 61
501 112
956 98
89 18
558 88
304 92
940 10
118 81
85 133
870 94
997 135
956 134
214 18
385 16
661 100
627 44
1071 84
28 44
647 22
1034 53
564 24
945 124
281 44
463 121
246 123
1093 108
529 66
615 69
207 15
569 102
298 133
575 33
803 40
144 75
921 32
707 72
907 97
62 42
101 113
425 94
746 0
878 70
271 36
160 19
952 105
334 92
1186 43
239 83
1099 38
682 15
294 19
292 95
1163 59
257 137
827 110
901 59
724 97
758 10
704 39
287 16
279 12
984 93
70 18
398 112
245 19
1150 125
714 89
599 102
551 62
719 18
526 118
665 47
833 40
67 98
992 33
46 75
643 65
971 10
1240 55
420 136
1017 126
115 25
55 123
886 51
444 84
1087 41
1079 37
461 24
569 115
448 54
1096 126
291 107
1143 58
251 71
102 91
994 115
838 96
818 38
381 0
641 76
642 41
1138 128
305 127
1218 8
921 130
1176 11
879 133
880 98
422 74
1032 83
1005 129
796 135
529 20
634 73
674 109
171 83
580 102
212 84
928 25
358 138
546 109
766 112
176 18
813 44
598 119
792 21
726 76
455 107
415 34
333 81
957 88
193 70
770 82
856 42
902 9
1096 103
479 55
994 92
363 109
751 105
173 128
1235 38
309 138
857 86
1233 108
629 79
294 9
991 86
155 80
728 121
501 79
932 0
1038 18
170 59
867 136
1120 87
476 22
1153 121
1172 134
367 115
52 103
85 100
796 112
433 60
1119 128
662 32
1231 40
56 73
507 9
231 74
1169 65
223 70
974 118
15 41
765 124
283 121
883 116
252 133
49 70
164 20
365 10
994 69
908 29
113 91
1193 49
979 89
1139 78
743 78
100 121
428 66
1091 1
527 108
386 69
1137 117
909 110
501 56
928 123
983 59
69 133
106 51
885 18
34 32
1059 54
198 134
641 66
359 88
1092 2
1111 101
1239 21
715 15
810 24
709 121
45 41
163 33
236 17
1188 55
175 7
1154 62
139 84
528 45
529 10
240 136
917 6
634 63
843 57
1063 60
1008 124
392 41
586 135
479 9
633 67
766 102
518 117
47 86
872 120
435 82
153 104
1081 114
865 81
824 43
487 129
78 110
319 136
107 137
1140 20
560 119
994 82
826 89
1054 96
209 41
644 112
952 85
1025 69
857 76
6 90
480 126
226 130
429 44
220 50
587 72
566 49
438 129
721 72
1049 17
439 94
1055 97
136 56
714 33
187 138
1067 71
34 45
1114 3
784 128
729 12
662 22
171 50
1063 37
526 98
545 111
586 112
263 133
392 18
276 72
335 121
824 20
1199 83
950 16
1105 39
982 85
1210 92
345 22
942 12
833 105
82 57
741 22
290 6
672 8
1002 63
590 118
691 21
465 87
911 61
19 37
375 50
165 91
1078 58
728 88
928 113
775 20
83 58
69 123
458 84
773 96
296 22
369 6
887 81
469 93
201 50
205 20
1051 40
996 24
336 94
605 139
451 81
283 88
817 138
113 22
1090 74
333 25
1044 37
252 100
841 86
169 102
739 75
1127 71
436 37
154 59
487 119
1086 39
225 119
508 62
896 58
977 132
688 29
1045 1
720 61
853 96
202 135
940 101
1149 95
510 108
1126 111
53 12
407 95
521 117
795 91
58 127
325 62
585 138
600 1
120 38
1220 11
103 134
1069 107
404 62
67 68
623 20
78 77
273 136
1084 86
621 96
633 70
531 59
846 34
791 98
718 114
328 108
355 62
1215 17
657 18
456 28
477 51
1110 80
458 74
867 93
281 112
1067 38
93 61
463 9
795 104
513 126
1206 53
474 18
723 85
1063 4
372 7
76 8
914 61
694 21
418 123
128 55
62 110
597 125
988 10
200 81
340 54
13 74
441 106
159 128
205 95
1158 12
138 105
279 44
369 117
47 66
316 111
967 72
148 118
1222 33
327 120
642 132
802 121
803 49
91 29
237 83
720 51
278 84
257 61
826 69
269 115
941 19
249 57
718 127
1108 47
993 66
481 34
1204 20
553 59
1196 16
914 38
859 102
81 100
27 129
1142 45
1249 28
986 63
657 116
664 12
180 79
137 117
830 44
962 114
452 92
197 131
518 74
190 92
1002 7
1235 129
913 78
1113 103
4 118
64 132
244 17
480 47
131 42
190 128
800 137
874 86
297 111
411 96
726 108
999 117
591 63
851 139
897 106
1226 16
949 116
855 109
259 84
10 17
364 100
995 3
599 3
544 67
1122 44
1142 22
556 78
871 53
617 57
489 137
836 95
682 37
219 47
573 130
157 72
317 61
75 119
740 127
860 80
699 126
1226 137
1093 22
507 41
822 53
936 75
299 12
445 66
1049 95
465 44
337 124
416 39
1094 103
1013 29
1149 39
744 133
1233 32
736 129
174 17
637 7
1071 119
151 113
1118 51
532 70
75 11
604 95
630 4
388 62
93 28
1213 59
986 17
1165 19
31 53
219 24
250 128
1211 135
471 96
800 6
263 67
899 128
283 45
944 136
495 44
454 43
233 44
387 102
943 91
43 63
1136 77
881 116
577 113
901 94
101 4
584 9
88 71
779 68
369 84
118 93
1051 118
528 77
916 73
265 112
1185 118
540 51
1089 1
720 18
383 104
866 72
458 18
26 95
396 43
301 71
1166 104
1098 86
930 93
467 103
1104 129
587 19
378 25
251 70
1130 38
397 124
456 93
1246 69
883 17
373 95
788 45
849 24
1163 71
303 116
618 128
1006 124
664 15
804 138
964 127
850 105
924 54
225 53
56 95
1077 4
1150 137
231 96
560 43
713 136
351 49
1214 9
340 119
1146 103
529 55
963 18
890 34
1063 105
3 125
89 128
313 22
1110 37
541 29
479 54
593 76
271 25
606 134
490 63
919 97
173 127
616 59
334 81
353 94
997 16
577 67
369 38
1195 0
6 135
704 28
944 126
965 69
347 56
138 62
1003 95
902 129
243 78
1218 20
344 130
1196 81
136 101
1121 87
1208 55
905 54
508 9
635 50
580 114
863 57
968 110
339 51
1185 108
988 88
1135 107
403 72
290 15
946 91
918 109
569 104
884 116
957 100
534 3
861 132
216 102
336 18
845 124
691 66
74 18
871 33
811 131
1191 123
889 87
936 19
143 117
303 106
1115 21
1061 50
551 28
524 74
1202 138
88 38
375 131
1039 111
925 9
1240 21
807 133
1083 37
880 123
234 128
395 45
92 44
729 70
393 121
861 109
498 57
579 131
759 98
978 136
188 17
657 50
193 95
489 94
648 81
668 96
1078 80
614 125
1144 25
310 122
229 134
672 66
900 73
1223 89
1155 34
523 86
296 44
315 57
610 91
819 85
809 71
378 113
1210 6
344 120
969 29
833 19
619 59
283 110
1113 73
1100 103
992 12
1117 43
220 60
854 78
259 18
258 53
69 37
867 17
967 104
1200 77
152 71
817 16
507 119
823 96
500 80
91 61
1103 1
680 47
834 105
262 59
409 78
283 2
1007 33
1078 93
131 133
541 117
1144 38
1244 125
767 51
189 74
439 106
230 112
135 103
1102 41
170 61
41 96
873 69
96 32
65 44
1071 53
1103 122
1063 49
553 127
9 0
545 123
108 122
820 62
538 84
978 90
676 54
1030 137
354 3
507 96
896 57
98 77
632 127
55 115
596 61
214 108
617 4
71 96
1145 123
709 87
500 93
1105 87
547 25
889 54
566 38
357 44
143 84
1238 22
450 92
1047 82
724 66
234 59
462 66
1119 107
910 113
984 62
965 49
433 39
1244 138
580 58
976 58
800 61
733 71
961 15
671 96
309 9
636 138
300 40
286 105
401 92
494 134
1146 60
620 130
863 37
526 123
567 124
130 123
35 114
90 50
352 50
476 122
308 129
1221 10
615 51
428 45
508 74
822 121
1050 128
1057 24
728 77
492 66
1243 114
284 37
143 61
122 38
577 24
731 119
449 104
678 76
524 18
798 29
309 130
1038 10
541 107
1130 93
42 131
553 81
156 116
878 137
725 44
1067 73
670 108
93 96
1060 34
609 98
1205 123
1008 103
1083 17
1069 119
1010 33
294 122
153 83
704 106
506 121
70 85
434 102
1223 33
153 119
60 40
811 88
991 55
1117 131
131 100
23 9
292 54
867 105
449 117
819 65
1087 108
879 79
1040 33
179 113
1004 110
836 117
31 98
1057 122
171 29
1150 84
754 84
914 73
451 83
1216 29
652 73
538 51
1189 12
1154 54
706 44
919 8
837 118
506 98
901 139
215 71
1195 91
571 84
1113 138
381 103
153 96
327 132
214 75
897 105
319 128
843 134
635 105
573 44
209 33
657 43
816 36
190 19
908 119
302 80
220 127
608 123
31 111
569 15
1124 125
306 50
547 113
949 7
923 135
486 17
1189 25
872 68
1176 55
524 129
34 122
631 112
107 106
1220 98
561 47
1030 117
225 98
1049 130
426 88
654 95
882 102
292 8
264 89
874 98
823 53
1222 58
740 18
248 81
363 68
611 133
1046 61
952 54
493 34
284 40
848 82
1090 24
1122 56
1068 85
342 130
825 98
93 63
965 29
722 122
609 65
1152 84
734 96
1177 28
271 106
1076 125
431 58
908 132
43 62
464 92
283 80
765 83
1061 82
1169 24
348 60
1032 55
1073 56
649 137
778 22
488 40
661 111
877 1
566 139
861 56
96 110
1022 10
1223 0
316 113
490 0
1187 77
165 60
226 76
76 131
104 50
406 6
874 111
324 53
705 10
832 114
819 32
188 49
388 74
944 63
1138 77
1151 96
674 22
694 0
103 90
1069 63
597 104
429 111
717 20
13 53
72 102
118 69
501 136
943 103
574 120
412 58
849 59
727 70
586 94
418 138
243 100
1003 117
28 32
1063 19
47 45
1195 58
853 29
193 19
1105 21
185 15
869 10
445 91
1196 139
969 97
988 110
49 91
143 18
417 29
148 133
732 4
637 32
447 137
440 12
467 115
655 86
104 63
1010 134
876 134
848 72
485 20
585 107
1068 75
889 119
1201 110
396 91
470 40
0 91
1181 132
543 110
463 1
408 65
1086 129
554 119
628 68
547 80
506 42
122 116
747 25
423 44
215 15
967 28
121 8
872 56
865 17
979 2
333 7
978 37
413 36
136 136
183 68
894 80
362 70
120 128
583 38
455 118
426 91
855 88
123 53
1022 85
773 55
162 130
444 108
605 62
510 90
1241 123
456 82
179 70
79 132
562 100
1108 124
700 70
208 133
626 121
577 79
637 130
805 123
740 106
629 126
213 68
186 114
447 6
184 41
1218 32
284 128
539 89
975 125
76 62
719 19
96 77
892 127
444 0
1230 6
343 34
309 41
696 72
1019 88
783 40
1085 33
508 21
258 75
560 68
1237 130
600 104
214 68
1193 60
1172 37
770 106
795 50
427 32
144 89
460 66
842 131
962 47
584 132
436 117
356 8
691 78
348 4
174 117
220 84
777 38
609 45
280 135
158 109
943 70
547 70
393 12
311 122
184 18
954 79
1163 73
746 50
900 108
579 22
629 139
188 137
307 88
1073 36
253 117
744 89
414 71
5 15
897 39
226 20
977 68
245 33
854 77
673 65
1197 71
222 129
397 18
438 19
1168 44
1181 63
528 92
890 36
781 129
1224 61
424 120
866 87
450 29
1241 113
743 102
294 10
930 108
480 137
951 51
400 28
346 57
239 74
82 127
1211 127
907 124
263 59
304 60
1055 108
1061 39
329 4
461 123
864 19
496 1
804 117
507 10
124 129
190 74
36 16
504 121
229 2
685 53
934 83
744 102
849 124
640 130
646 61
761 11
552 17
196 90
612 68
249 16
376 57
1127 105
241 12
322 86
919 76
59 121
985 21
722 56
1119 21
280 89
828 37
842 121
553 18
425 98
101 117
1108 91
48 111
122 60
271 40
477 108
792 120
811 133
1100 7
12 45
206 139
1019 19
44 77
500 128
501 93
566 73
720 131
115 137
693 114
659 121
451 92
651 117
724 101
893 59
999 40
1048 82
308 43
850 97
1065 22
716 17
10 120
548 24
977 58
808 100
735 116
654 42
823 0
283 135
1249 108
557 109
194 57
604 41
15 55
267 127
86 115
360 89
1098 55
1210 116
310 88
142 132
867 42
416 106
276 132
1128 83
1214 86
73 32
1022 65
1080 6
616 51
375 74
636 29
1003 51
827 91
21 107
1215 87
724 78
556 122
516 49
744 56
53 59
315 59
1024 110
634 41
124 119
111 0
754 106
833 21
182 60
987 79
705 101
1248 120
329 79
302 125
1102 66
918 65
764 7
254 85
473 123
206 8
1225 136
306 95
621 107
331 39
646 51
329 115
918 101
590 119
1242 45
59 111
1093 102
508 86
144 69
405 110
82 94
425 88
48 101
1014 74
0 61
268 104
610 70
972 77
763 83
99 3
233 3
642 22
512 92
304 63
941 89
1208 24
736 65
294 98
191 122
23 129
928 6
89 74
392 32
801 51
1189 47
765 128
384 28
538 86
967 83
503 128
140 76
946 60
758 89
18 50
395 37
924 121
118 137
27 19
267 117
990 103
970 8
519 72
833 119
28 100
357 10
799 126
1242 58
1114 138
228 45
1007 12
906 109
1179 118
1194 18
1168 109
628 15
910 79
1137 121
493 56
511 104
558 36
786 43
610 83
469 107
1066 97
784 119
147 56
288 32
622 57
843 25
902 111
1063 28
544 137
391 44
392 9
431 80
820 41
571 11
919 20
301 7
342 8
474 78
1044 51
661 133
668 29
203 109
955 122
625 67
530 95
940 79
1241 70
396 15
691 12
1011 139
92 98
917 95
385 85
942 39
217 129
446 101
311 56
69 114
115 81
845 106
1046 96
637 77
791 135
898 118
440 57
522 96
353 138
145 109
1111 82
534 70
580 37
263 101
1202 120
878 139
651 97
462 81
66 81
482 59
340 55
664 36
937 45
520 22
1198 86
23 119
675 45
1017 74
77 10
1083 19
628 113
57 32
362 79
1147 40
1093 69
1239 123
1030 129
923 3
244 123
862 136
842 78
633 84
156 10
753 0
36 94
699 29
202 126
491 0
959 105
1214 66
268 71
311 33
469 61
1 136
548 125
909 104
767 20
552 95
772 135
1141 81
1101 45
241 90
27 130
288 22
516 29
1193 128
605 107
262 113
642 25
1011 8
361 19
2 73
43 74
1163 105
754 86
700 115
54 120
169 70
20 127
1099 120
