449 11
328 14
29 20
390 46
915 8
767 2
113 11
123 0
960 7
232 14
318 6
1016 8
76 18
744 8
560 8
700 11
162 4
987 37
847 31
164 8
471 0
742 4
950 8
1311 10
1092 64
340 37
1031 11
318 25
636 14
464 2
161 18
505 36
872 0
1112 12
404 7
362 7
834 8
845 16
96 11
125 41
581 29
1024 42
181 23
1285 7
996 0
1285 37
255 47
796 11
525 11
1084 8
171 7
701 1
955 18
275 6
552 64
1275 8
273 64
525 4
215 4
684 7
228 14
525 52
966 6
777 0
90 2
311 8
805 8
1296 7
430 7
206 3
510 4
969 6
1125 64
1028 0
462 52
826 8
217 42
948 16
383 47
423 11
64 2
874 12
162 42
13 11
462 14
1255 64
769 11
754 4
597 0
187 64
745 8
283 20
639 26
563 62
1066 1
611 29
274 6
76 4
65 3
28 13
382 6
298 6
270 11
835 9
676 2
635 48
1128 9
1017 6
1085 46
688 4
720 14
225 11
964 4
1180 7
1063 1
3 12
611 11
1076 4
990 6
679 14
568 27
191 31
329 81
557 11
425 7
1170 11
549 8
608 64
346 11
334 18
1028 23
505 16
549 6
0 2
1085 29
363 3
1276 3
391 13
327 11
1145 4
529 10
332 3
234 11
328 51
198 6
613 7
70 13
165 14
377 9
239 3
483 29
321 7
11 2
45 25
245 3
94 30
506 4
578 3
922 2
287 7
822 1
237 11
359 8
215 38
18 12
254 42
230 3
807 11
58 26
303 12
191 11
843 4
757 11
167 13
1023 26
5 3
735 24
690 1
841 30
1296 64
506 14
1034 6
942 8
527 31
986 20
577 14
471 3
1127 14
712 3
244 3
439 8
368 6
318 8
273 7
76 26
1034 42
1283 3
287 2
30 6
374 33
1059 14
221 11
1309 8
714 26
1074 16
230 61
552 11
406 7
1094 19
1021 7
306 3
507 15
1123 64
158 4
674 7
144 13
201 6
508 8
355 6
162 8
763 0
1131 14
986 0
168 11
1105 8
929 8
45 26
197 4
520 13
391 24
812 1
1157 0
853 8
224 20
1090 26
1093 14
1310 31
281 31
176 64
273 42
560 26
1257 8
210 6
1309 42
275 64
122 14
661 7
613 3
251 1
172 9
93 1
1293 18
213 37
836 8
231 8
1285 17
36 3
279 4
214 4
469 6
892 8
580 31
1316 8
10 11
696 37
832 6
278 51
152 6
1070 11
217 6
197 8
1275 2
340 11
1123 3
477 11
673 62
1203 0
534 0
578 0
506 9
721 11
799 11
1137 0
146 11
961 1
560 51
216 7
1043 2
1281 0
936 2
998 7
104 1
1081 2
611 8
91 11
269 8
888 48
1037 64
1256 11
5 19
1211 7
636 11
122 0
1095 1
534 7
1291 14
791 52
684 6
316 40
218 2
79 11
13 28
1085 11
322 7
1081 8
280 4
944 64
1281 8
1078 11
278 4
882 4
1134 31
779 8
342 30
846 16
1039 8
1031 6
457 4
330 90
95 18
1211 8
153 7
1086 8
612 16
859 64
213 15
173 6
74 14
795 11
439 42
91 3
33 21
1084 2
18 26
353 9
1184 7
1207 0
94 28
961 18
481 23
176 7
1183 3
1299 24
896 11
729 6
1081 26
543 9
91 49
320 11
596 0
234 9
1297 7
836 42
234 6
1146 14
1033 30
273 54
962 34
901 14
1040 3
91 7
86 21
502 4
400 64
113 8
358 3
985 11
353 31
473 6
476 26
540 24
1201 14
1078 8
289 8
484 7
553 7
1309 7
1030 31
228 3
1166 0
263 2
141 8
49 3
536 0
546 6
1316 4
987 8
45 14
174 47
569 7
172 13
779 7
477 2
483 2
255 7
1251 4
592 4
505 20
847 6
1191 8
206 15
105 6
1272 6
388 4
48 22
669 1
9 9
850 9
486 6
239 8
234 4
763 18
606 11
502 98
600 7
697 24
148 14
120 4
605 7
394 13
632 36
388 6
685 4
1305 2
855 7
822 11
83 14
262 24
1091 16
114 57
327 4
679 26
399 8
1036 64
198 64
363 1
356 8
396 30
362 25
757 8
1290 3
213 7
1061 26
168 2
713 24
656 1
1022 14
731 37
1086 3
167 24
1018 7
279 80
639 2
87 3
1128 10
861 15
440 4
940 11
128 8
1039 6
835 0
782 24
65 4
750 46
383 64
120 7
1077 6
483 9
843 8
297 6
207 7
593 24
291 11
148 28
265 6
222 61
261 7
582 3
774 3
578 34
584 8
1091 3
396 8
436 11
489 11
400 47
1081 12
510 11
1192 8
573 11
428 1
841 1
850 15
106 13
186 0
777 6
334 21
109 8
31 11
1086 14
1275 18
500 6
176 65
554 4
47 24
1256 7
224 78
174 3
783 4
1288 7
218 6
855 6
33 12
353 8
1278 4
102 26
706 4
217 7
528 1
1151 7
1256 62
147 7
1053 14
874 4
397 12
1095 14
545 42
714 24
108 53
475 8
302 64
616 24
206 59
354 9
1259 0
503 64
651 8
918 11
1277 6
367 6
6 24
1187 8
442 8
995 0
1079 4
181 67
555 8
1028 6
1098 4
332 37
366 8
289 59
190 31
328 90
171 12
321 12
810 11
1238 14
612 4
668 8
316 6
258 66
616 4
1023 14
563 6
35 12
747 4
33 3
317 6
1224 0
306 6
985 4
684 37
33 4
721 20
291 22
176 2
340 35
102 31
444 0
1091 11
775 24
148 22
346 8
849 7
530 13
889 14
814 14
36 26
773 11
1219 7
302 47
192 14
796 7
785 4
444 24
154 11
617 8
338 9
1126 1
318 26
278 71
372 5
1255 11
293 6
334 11
1029 42
731 47
1253 26
505 11
1114 62
389 6
844 37
820 8
843 1
480 6
168 8
373 3
960 18
462 64
76 14
525 34
1081 46
815 1
835 18
1087 4
346 23
218 7
466 11
113 4
1195 7
128 6
174 11
1252 9
878 18
663 3
937 8
1131 4
24 12
618 7
1028 4
11 6
380 6
1033 4
605 19
367 8
1039 64
1256 6
213 66
1075 26
708 11
207 24
287 18
390 37
1314 7
215 11
13 14
27 37
414 0
70 8
135 11
18 31
555 15
1130 0
1214 0
1103 9
1216 1
1152 4
373 9
644 3
1256 2
679 8
145 0
578 12
93 9
459 1
1275 6
285 30
306 4
1202 0
191 33
148 53
176 47
701 4
1165 7
289 14
443 31
575 4
1192 14
206 42
669 14
1180 14
1299 8
704 1
471 36
1244 4
914 1
484 8
64 4
167 11
394 4
303 4
1128 12
394 9
265 63
1248 6
321 30
316 7
1302 14
1175 1
9 10
855 4
1142 1
1304 4
388 13
732 11
935 14
617 64
452 14
155 14
528 14
503 7
962 10
162 30
491 9
704 11
190 8
1075 14
211 2
935 11
721 6
90 9
215 30
353 11
569 4
898 4
168 16
481 8
679 0
907 7
181 62
169 64
302 3
334 36
239 15
300 8
21 20
838 6
523 6
496 51
104 14
1314 64
703 30
815 8
2 3
735 1
1080 3
404 16
1285 26
717 30
563 8
531 7
496 3
735 14
14 13
835 11
1104 20
291 8
1084 17
1033 42
805 1
399 11
556 28
245 48
464 8
254 9
326 37
910 36
90 8
766 36
216 18
924 7
224 8
342 8
914 62
258 6
1083 6
1034 30
438 8
468 3
867 0
209 9
5 21
387 4
435 6
793 4
334 8
229 26
125 8
835 47
1065 64
678 7
7 14
197 2
616 8
1314 4
16 24
18 17
355 18
182 20
878 6
389 9
170 2
1255 8
345 13
376 14
213 64
317 21
766 16
215 35
570 36
919 8
69 37
1232 11
75 14
271 8
283 31
1274 8
792 1
244 6
846 6
813 11
1265 14
0 6
267 8
960 2
314 8
760 7
1033 0
350 8
258 11
467 0
538 7
563 13
1268 0
970 4
261 14
362 24
176 12
1178 11
1252 13
1291 7
330 8
1194 14
1279 47
776 8
262 20
417 62
243 8
441 14
307 8
1046 24
913 62
740 9
765 0
865 8
7 23
452 7
581 0
841 42
855 18
525 7
634 31
880 64
274 64
349 16
1002 7
799 2
712 1
570 8
167 4
534 9
5 8
801 11
14 9
1071 11
181 6
146 12
283 6
194 64
809 4
16 7
19 8
563 7
639 64
33 14
121 8
16 8
330 31
1314 16
503 37
847 24
259 13
773 4
239 24
829 0
840 8
704 14
278 16
217 18
466 15
364 23
812 14
1278 11
326 18
557 22
216 4
695 4
170 11
224 26
480 4
704 6
366 6
588 62
301 6
1024 8
178 62
165 8
5 6
274 12
545 30
1030 42
1085 6
1066 7
462 4
886 12
1152 11
203 64
220 8
781 7
882 3
1275 9
1251 6
278 37
606 3
355 2
233 31
137 42
824 11
1111 8
1271 9
160 0
1293 4
373 30
590 10
502 66
616 30
183 18
983 11
148 26
274 8
283 19
573 8
616 31
970 13
1095 8
1205 14
1109 62
1316 3
1035 6
976 26
386 4
1033 7
989 6
158 6
880 11
253 6
1053 1
665 7
329 8
181 7
1237 8
170 23
1131 11
773 15
215 68
880 0
1255 2
1136 14
93 6
442 7
385 14
554 7
1303 25
356 6
605 14
183 64
1130 8
64 8
946 0
900 8
1291 3
1283 8
179 8
1315 4
1098 6
9 6
121 11
613 6
102 11
761 2
1104 7
502 64
563 42
330 1
1086 26
563 11
663 12
544 9
580 3
961 7
118 9
257 66
327 12
95 7
349 37
302 11
1232 8
230 18
1296 37
1232 13
403 0
561 100
254 6
330 11
324 8
1091 7
380 7
687 8
1011 24
491 1
146 7
941 9
11 26
7 9
1163 1
42 2
26 11
217 3
525 8
1030 0
357 3
1293 42
151 29
455 0
694 10
95 3
836 30
1316 33
965 0
1046 1
183 24
1114 31
174 0
150 6
162 6
256 31
901 30
1094 4
357 13
680 4
182 6
708 8
153 6
3 8
726 3
65 18
1123 8
468 8
620 11
943 8
1238 8
1181 14
513 8
1206 0
1306 4
321 81
1311 12
705 7
169 6
259 26
877 2
512 7
329 14
761 7
484 13
48 3
152 3
1005 6
391 61
1126 11
639 11
722 4
807 14
577 4
179 1
434 0
237 6
930 2
396 31
330 26
1108 0
933 2
237 51
1309 18
356 10
712 8
179 7
1141 8
397 64
524 31
121 4
189 8
955 9
230 8
251 26
146 3
340 27
1252 11
188 7
170 6
552 4
297 8
28 12
172 25
148 3
1249 8
575 11
1290 10
818 24
1127 8
637 7
583 11
650 8
1246 42
206 4
488 26
356 1
303 47
1292 66
108 2
302 16
180 4
502 11
512 16
1002 8
624 37
213 8
888 9
786 11
340 8
859 14
986 6
502 58
484 4
290 1
559 9
754 2
878 4
372 24
1156 0
1151 4
1277 22
467 6
477 7
807 24
1065 3
215 70
883 7
101 4
221 64
288 4
158 32
14 8
878 30
346 3
473 4
955 52
1033 64
387 11
559 6
1230 37
302 32
709 53
1040 7
798 4
938 9
523 7
262 40
300 7
302 18
342 10
342 2
721 91
64 14
814 4
964 64
1159 8
961 6
372 12
1233 8
878 3
1042 0
233 11
1085 102
560 13
890 14
961 0
1028 62
29 8
190 14
836 0
239 11
1011 14
998 11
5 22
1267 1
1106 64
3 13
1311 7
332 47
578 29
898 36
299 8
574 4
302 59
209 3
767 62
1285 2
1315 2
61 7
211 13
52 0
353 23
825 4
123 6
187 24
323 3
190 42
7 2
316 41
188 18
1083 7
847 7
91 17
924 11
743 4
495 31
190 15
885 27
1231 64
57 1
339 11
564 13
880 37
1211 1
477 8
0 0
466 36
24 11
18 24
490 2
838 0
486 11
1011 31
797 2
26 7
460 8
1294 3
1101 6
901 25
1233 14
448 11
389 20
639 14
328 12
1193 1
58 14
285 8
97 11
222 2
281 19
541 6
897 6
871 7
60 8
132 3
611 4
198 8
340 14
1126 14
252 6
261 11
1081 1
244 4
182 9
272 6
374 64
265 30
752 0
565 7
967 62
114 0
470 11
806 4
745 24
471 31
397 8
768 4
826 11
1107 8
373 6
1013 41
398 8
336 24
21 7
670 8
222 4
787 4
955 51
404 20
717 7
1242 8
1113 64
97 37
612 6
378 11
193 30
518 11
1285 104
1100 7
322 48
254 12
181 13
962 3
261 9
618 11
110 7
1185 11
1221 31
782 14
633 7
609 8
723 11
37 14
556 3
640 9
935 64
152 11
1070 36
548 11
1225 0
218 13
556 4
349 3
1213 8
309 37
206 13
37 3
1018 6
86 18
1098 8
53 4
9 2
496 7
635 9
401 9
721 2
153 62
480 2
1121 31
346 36
391 12
557 7
854 101
1311 2
349 8
442 24
847 3
319 64
466 64
32 18
238 6
220 2
331 13
836 11
961 64
248 11
308 4
986 2
771 8
948 6
328 2
486 4
1152 18
937 64
549 64
882 37
234 8
912 2
118 4
822 4
302 12
363 33
561 8
98 4
295 8
299 25
689 11
239 66
1288 6
768 8
346 18
323 12
1064 4
353 64
291 7
161 21
705 4
1113 65
638 8
224 3
690 11
53 11
904 6
466 7
210 64
698 6
275 12
610 3
796 4
951 9
188 3
834 24
1151 11
405 13
1311 4
1088 6
804 1
1264 7
502 51
1095 7
349 41
805 14
29 3
1291 6
281 7
726 11
650 6
1029 9
391 46
236 3
446 11
1136 7
320 8
1291 13
16 14
570 41
1081 11
26 16
226 7
1189 1
241 64
593 8
1061 14
1090 14
183 1
1303 8
93 0
706 24
226 6
1128 24
226 2
125 7
114 8
1200 7
990 64
894 37
326 61
33 6
522 8
3 15
170 16
55 14
400 1
35 8
865 14
257 36
810 24
432 9
183 36
716 0
33 44
792 11
289 11
32 4
219 4
1175 7
966 12
502 36
711 31
780 4
168 31
1246 4
1022 26
645 9
106 14
1039 4
27 8
164 11
676 7
1040 6
374 7
3 10
141 3
823 37
1258 7
1038 11
600 11
1193 14
96 12
161 3
1003 64
91 4
581 14
7 8
1113 11
836 6
233 4
3 14
1089 2
316 9
696 8
1267 14
8 9
181 31
8 6
1258 14
739 4
917 8
769 4
302 21
1188 8
1285 6
346 12
8 3
1251 3
910 8
241 11
43 7
302 6
1316 6
356 31
318 7
469 31
988 12
808 31
179 25
457 8
330 0
126 11
1134 4
303 3
205 7
179 24
486 3
143 1
1218 8
234 7
388 9
189 2
6 4
487 9
612 8
400 6
388 64
1233 4
91 37
615 1
110 8
870 8
696 11
484 9
1246 41
1293 8
398 64
1095 11
1129 8
96 24
372 11
148 2
498 6
984 8
581 62
334 1
187 20
1307 47
377 37
482 9
1082 1
1018 11
265 1
674 20
224 2
1185 8
351 13
860 24
935 6
77 4
1030 7
90 29
94 17
586 24
452 24
485 8
215 13
241 3
658 8
49 25
581 34
842 34
834 31
470 8
1119 11
1134 23
112 26
340 41
322 11
77 18
606 1
617 10
903 14
602 7
1280 3
146 4
114 3
315 3
273 6
77 47
1017 64
217 31
944 6
876 4
500 14
399 64
382 8
1098 64
326 2
605 8
484 18
986 12
1126 20
49 24
1231 6
347 13
1232 4
905 14
767 6
1015 2
28 8
835 4
278 11
986 8
194 6
150 4
684 40
858 8
377 6
1291 2
269 45
1144 0
1199 8
304 0
1299 6
215 12
197 14
541 7
1014 6
194 3
118 3
892 14
971 9
377 8
1256 64
1291 16
607 0
617 12
193 24
1195 14
251 11
279 11
100 7
448 4
355 31
389 3
1271 0
318 13
674 24
207 14
849 10
733 11
911 4
1135 7
439 11
825 11
927 31
42 3
881 19
1233 1
774 4
1037 6
91 25
398 12
206 10
289 3
356 11
512 13
1152 9
215 71
1034 18
616 6
273 11
33 13
373 95
512 11
684 41
1074 11
430 8
42 24
851 64
502 47
709 8
106 3
218 47
856 8
387 8
218 4
93 8
95 17
468 7
647 8
374 32
1043 7
257 3
1038 64
1184 1
1316 7
956 0
232 6
253 4
302 31
1148 37
1253 14
925 11
615 11
438 11
372 6
1070 63
1260 8
708 2
313 9
333 8
1045 8
1234 7
1011 1
34 8
617 11
8 8
300 11
95 16
494 9
10 4
1033 9
936 64
277 4
751 0
1256 1
76 12
251 25
209 6
583 3
1257 36
1129 10
796 37
509 8
38 0
1153 14
454 11
265 64
293 12
270 6
594 0
1022 2
166 12
538 14
319 11
835 3
1255 4
167 64
209 31
231 16
458 14
369 64
346 10
1031 64
1284 47
379 7
691 7
246 4
353 13
585 4
423 4
614 12
261 31
880 4
370 37
111 6
885 11
975 0
727 2
771 4
239 4
215 39
1068 4
462 11
358 10
279 8
221 4
807 7
355 26
91 18
1164 7
224 77
11 11
1025 24
1208 0
1182 8
484 3
1304 2
274 4
1302 1
1073 26
1204 1
283 2
522 11
334 7
1312 2
215 16
478 1
1270 0
885 6
158 8
363 11
495 10
816 11
284 11
1085 64
26 8
708 53
622 4
306 14
563 4
1190 14
649 6
540 8
132 8
128 9
371 11
33 18
390 8
188 20
831 15
910 6
274 3
490 4
1277 11
1267 8
786 4
153 11
1291 51
901 1
123 37
324 12
187 11
751 37
522 2
671 8
618 4
576 19
746 8
209 61
355 11
960 0
609 7
165 6
963 26
206 18
567 6
431 7
1269 8
181 12
211 47
565 12
652 4
959 8
7 26
955 8
560 14
841 4
254 1
1089 47
328 4
212 3
39 6
583 17
815 14
410 7
364 24
21 16
534 14
881 2
666 37
194 9
1052 8
254 18
1246 2
644 5
97 9
233 14
114 56
529 8
657 24
1176 0
448 6
722 8
8 24
998 16
1248 62
494 27
275 4
999 3
251 24
754 1
888 31
1151 30
174 53
302 7
120 23
404 11
225 16
684 20
831 8
1238 1
7 24
91 12
217 4
258 8
1084 18
1093 23
491 23
8 16
1186 8
79 45
261 1
510 36
574 7
1286 6
157 30
929 6
835 7
626 8
94 52
143 7
932 2
1279 64
577 26
833 0
614 37
606 14
1263 37
414 4
1036 4
219 34
471 4
499 6
1083 18
1271 26
908 8
328 64
334 3
489 31
61 1
732 4
1291 26
651 2
570 46
613 11
176 18
3 11
1215 14
239 25
151 47
1018 30
753 8
255 13
1011 7
70 6
342 37
665 45
433 4
830 6
14 2
76 8
299 6
442 14
1247 0
1184 14
19 27
245 0
510 3
377 31
1133 4
884 14
209 66
254 53
573 4
961 42
926 7
96 4
42 11
94 12
389 21
1136 1
319 6
369 6
279 31
484 10
291 0
257 11
298 1
1285 47
858 31
383 6
32 6
104 21
251 18
241 6
33 8
153 13
269 14
266 30
1026 0
1042 4
623 6
1312 51
636 7
303 31
639 8
538 1
1239 7
214 11
242 4
682 14
802 24
334 4
1296 3
90 31
229 4
555 24
187 4
196 14
966 64
320 66
441 8
496 26
632 20
758 0
380 64
206 31
259 4
761 1
963 14
489 4
408 7
441 1
148 11
489 64
143 8
165 47
500 4
816 7
271 11
838 8
1293 11
1134 11
1133 2
920 8
861 8
885 64
26 18
243 18
176 13
31 7
457 14
156 14
718 37
490 8
0 9
213 11
322 9
353 16
1036 6
376 2
342 7
491 27
580 0
904 14
813 16
941 8
1314 32
1252 4
1019 6
605 4
281 3
322 26
441 7
164 4
763 30
1018 18
259 66
757 4
1045 3
300 13
306 11
68 1
91 16
181 20
124 8
225 8
251 61
153 0
925 4
215 3
50 3
399 12
5 10
782 1
272 8
1018 42
338 13
936 6
486 47
5 11
978 0
726 4
346 31
475 2
302 13
216 8
73 24
632 8
481 6
211 11
322 1
9 16
1227 4
909 8
293 8
356 14
13 6
580 8
245 14
215 24
1251 64
843 11
302 84
147 4
224 11
746 7
273 31
690 14
601 4
738 4
355 8
512 36
961 14
1248 2
457 2
340 6
217 67
317 18
625 4
664 6
265 2
502 14
317 64
399 13
634 6
878 7
526 46
275 66
33 30
734 3
190 25
1032 6
302 26
760 0
1273 8
705 24
1210 8
477 4
977 6
17 8
569 18
1182 1
509 24
298 7
379 11
321 66
19 3
937 6
374 2
896 20
1067 7
237 8
720 4
790 31
284 4
336 6
262 4
1247 64
215 7
209 7
1102 31
1216 7
924 16
583 18
29 7
722 37
772 2
466 16
118 7
360 8
217 8
679 41
613 2
18 30
1113 3
179 11
91 6
1294 7
62 2
721 64
1173 41
661 24
167 8
453 4
143 4
338 37
1314 10
1163 14
710 53
400 11
1036 18
275 7
240 24
221 7
1189 14
489 6
505 14
885 13
573 9
213 40
303 9
480 7
374 4
153 8
880 46
217 66
272 7
228 62
287 6
362 4
839 34
85 3
322 14
447 24
1095 18
273 47
853 7
1250 11
278 64
390 64
239 61
18 34
1196 8
979 3
256 79
278 3
300 3
30 8
353 3
224 36
463 2
363 6
1050 6
125 6
51 23
281 4
627 8
165 7
581 3
202 8
690 4
630 6
613 8
255 42
503 12
49 22
441 11
1082 2
1 1
362 8
298 3
475 4
1182 7
341 45
266 13
131 2
1255 1
835 30
805 13
1193 7
709 3
1049 11
164 22
525 31
481 4
569 19
714 11
1253 64
534 36
1286 7
715 4
122 3
1309 6
1123 9
1237 7
515 10
436 8
904 64
1092 6
316 2
573 6
826 24
691 4
237 64
1047 8
110 4
50 8
208 6
509 14
181 61
974 9
41 9
42 7
57 14
845 6
896 13
262 13
100 3
476 3
1036 30
33 43
1216 14
691 1
481 2
222 8
116 0
26 13
213 3
1091 20
914 8
198 3
1252 6
478 14
361 8
318 3
521 7
238 9
125 24
13 26
329 1
1291 64
403 1
600 14
828 24
170 51
222 66
302 19
1015 11
211 7
1182 14
287 17
667 4
8 2
289 37
464 4
270 26
1055 6
1312 4
162 13
1299 14
466 6
1299 2
346 15
1150 3
862 12
1140 8
1284 9
152 8
301 46
229 8
229 14
456 0
573 2
864 0
1035 4
231 6
91 51
108 8
157 13
773 24
289 31
1028 47
103 19
273 3
1246 3
277 11
330 3
721 16
721 36
589 7
856 0
307 4
236 7
788 7
1004 0
1082 14
600 4
1127 26
278 8
557 8
891 6
1273 6
355 61
525 26
731 31
467 11
641 6
495 4
1171 7
259 61
240 1
226 14
636 40
165 13
669 6
115 2
58 11
102 14
344 7
360 4
125 25
206 7
961 30
94 2
358 11
550 0
283 3
1086 7
160 8
1232 3
1271 1
379 4
193 4
363 12
32 42
232 26
202 6
194 4
209 4
217 30
486 28
388 12
257 13
972 23
176 11
827 15
56 2
896 40
495 8
489 51
911 8
560 3
349 51
503 8
1311 14
223 6
405 0
343 6
1028 11
183 31
261 3
838 46
393 1
289 1
365 8
887 28
492 2
383 8
91 1
283 14
183 4
714 2
555 7
477 46
709 0
1314 3
841 11
717 18
297 11
364 6
1123 13
254 30
219 75
1258 1
35 7
74 26
310 9
784 2
819 8
790 4
802 4
10 8
1084 46
812 11
375 29
340 7
218 8
85 6
1305 11
42 4
952 64
733 64
682 2
240 2
386 8
714 1
838 72
262 41
76 11
167 6
18 4
1084 16
391 16
712 24
1274 3
1040 36
1014 8
498 8
1250 4
1133 9
247 7
876 11
1313 24
165 41
713 2
114 10
97 7
33 42
1162 1
1104 16
824 31
835 8
560 30
151 6
782 4
882 11
1084 48
493 4
710 8
578 8
803 1
618 10
254 0
316 19
157 6
1002 11
1019 64
123 31
1015 14
502 12
940 8
804 14
1095 6
614 31
56 11
42 25
278 30
427 1
302 37
148 8
762 4
813 4
1296 8
331 8
934 42
316 36
342 11
399 24
1264 6
1296 18
225 36
1271 11
714 7
533 8
266 7
811 31
1261 0
384 9
373 25
771 11
466 8
1252 8
53 9
705 2
283 8
376 26
314 9
18 18
217 45
318 24
303 1
34 4
264 31
349 7
0 3
281 6
1024 64
873 31
641 8
723 8
556 8
946 7
391 11
1220 8
730 24
91 36
561 27
437 8
882 1
726 8
366 18
462 3
469 8
912 42
332 19
1244 11
1312 6
146 51
1299 7
352 9
11 27
10 2
574 34
613 13
204 4
29 41
49 11
283 11
605 15
812 4
953 8
966 3
484 54
885 8
1063 14
273 2
366 4
364 12
349 6
702 14
1043 26
506 7
899 36
316 11
816 20
259 1
442 2
192 1
189 3
838 11
19 35
802 11
912 6
46 3
522 4
520 47
857 64
939 64
889 6
634 4
636 8
18 10
400 8
467 8
1056 1
567 8
303 24
1104 36
1281 2
118 45
328 3
1080 4
720 11
1232 31
1045 6
31 4
522 7
76 10
113 6
1126 24
106 8
210 4
1263 8
143 11
18 7
481 10
303 36
1247 6
534 11
94 4
707 24
298 31
151 7
1175 14
617 6
1256 4
993 3
570 4
1126 8
862 8
608 0
287 3
152 7
217 74
493 64
257 7
1278 24
393 15
674 16
219 11
123 18
450 11
400 2
0 8
187 13
1314 31
561 14
11 8
816 36
691 2
352 4
704 19
463 11
256 8
127 11
398 31
349 11
93 18
931 9
992 6
127 24
95 8
170 4
553 8
62 6
373 11
226 8
393 23
1260 31
496 12
298 11
159 12
349 4
488 14
1008 6
595 1
89 8
706 14
99 3
213 20
372 13
1314 12
891 26
1291 10
1029 0
122 4
567 64
1297 6
1138 1
1119 4
328 7
520 4
176 8
717 0
187 6
463 4
489 7
28 16
462 7
291 82
224 1
420 8
1283 6
549 4
13 8
255 3
525 10
439 41
947 42
144 4
69 45
217 12
280 8
262 9
273 4
823 24
850 8
360 41
459 24
493 2
415 11
138 8
229 3
224 4
752 37
281 8
1249 26
457 7
720 1
1277 3
165 3
76 41
484 11
28 6
191 2
954 4
282 7
389 31
540 11
318 5
400 3
502 1
245 9
369 13
281 80
438 4
342 3
394 1
763 42
377 4
505 7
249 11
552 6
91 13
111 7
912 64
1198 0
563 3
232 21
886 11
624 7
348 8
829 4
90 14
433 11
18 6
802 6
1083 30
32 30
1024 2
114 4
478 7
512 42
704 24
1084 4
389 12
57 4
33 27
583 22
564 3
481 11
916 14
377 7
813 7
946 13
1250 24
77 0
188 4
821 8
503 65
225 20
714 4
31 12
859 1
747 11
618 3
855 3
61 2
986 4
692 0
1113 6
520 6
192 7
1312 23
40 7
1309 30
343 14
846 8
944 2
669 18
346 27
326 8
266 26
398 6
436 0
165 4
827 7
398 11
1129 6
181 3
316 47
1160 8
29 9
426 4
235 12
859 13
552 34
943 64
801 36
321 8
168 64
18 16
577 11
1084 9
618 27
1013 11
553 4
1013 12
918 8
951 4
85 4
395 6
466 80
814 24
189 12
720 26
1015 47
271 5
484 6
880 6
1253 31
454 4
691 14
745 14
1030 64
250 24
700 8
106 34
251 7
211 8
617 3
1146 1
854 8
34 11
115 8
825 31
1060 11
389 11
838 36
489 3
1273 3
1131 26
31 8
724 8
578 1
936 8
289 0
267 7
705 11
232 7
293 3
274 9
8 11
1078 1
745 1
179 14
616 12
617 46
1316 20
247 6
148 6
21 9
1036 11
422 0
732 8
188 6
415 2
495 12
998 20
415 7
187 8
742 11
1134 46
158 9
363 30
251 14
26 4
586 2
502 37
727 24
731 16
301 2
1311 8
245 7
9 8
553 28
399 4
679 15
342 12
837 18
957 6
477 14
643 8
160 14
557 3
222 31
217 21
29 12
358 66
1277 47
792 7
193 6
1071 24
1174 7
946 2
366 11
475 51
257 15
168 36
30 4
772 14
538 13
462 26
463 8
18 11
475 9
33 7
94 42
520 9
814 1
334 31
1314 22
1172 8
93 36
129 59
1314 24
415 24
836 47
217 0
945 2
90 16
216 3
358 7
303 2
512 41
322 4
258 4
275 8
340 10
183 30
167 16
91 0
1284 30
329 11
901 8
447 7
869 7
557 67
491 6
406 8
325 37
258 61
891 64
756 8
741 11
1124 3
283 12
961 2
144 7
278 7
181 10
1151 45
948 8
276 11
340 61
674 11
191 36
1123 11
322 18
1090 24
1030 102
1010 6
1118 3
271 30
910 4
230 6
1043 8
698 64
9 11
170 0
346 20
396 46
217 11
391 9
851 4
213 4
1060 8
1096 2
814 11
1014 23
737 4
277 6
213 61
654 27
314 13
801 7
144 60
217 73
5 17
226 11
391 2
717 4
1285 8
602 14
301 24
50 7
822 14
342 20
614 8
156 1
559 64
338 8
363 2
314 6
782 3
363 31
91 9
318 87
269 26
379 31
571 14
377 96
153 4
316 3
701 13
1311 6
324 11
391 3
128 3
731 4
211 9
301 14
705 8
175 7
609 0
336 7
1089 8
458 2
346 13
498 64
1042 6
500 7
16 23
31 37
484 16
449 4
1036 14
314 2
852 8
166 42
176 6
358 18
283 1
21 12
1026 9
841 7
6 9
102 4
473 0
151 8
550 4
197 26
1309 0
466 10
1192 1
518 4
238 2
330 89
170 53
1028 3
363 16
181 66
643 31
930 8
191 24
364 8
203 3
150 48
90 4
172 14
1312 8
58 3
388 7
416 6
135 8
326 41
191 6
302 83
476 8
96 0
788 11
399 7
746 24
708 4
1253 1
901 7
5 18
1033 6
225 4
179 4
1297 8
324 6
534 8
1256 8
476 7
1027 8
1314 33
794 11
393 9
298 71
1129 29
510 12
1070 6
1104 11
493 6
257 12
763 7
94 6
1151 6
125 4
557 64
535 0
680 24
955 4
674 36
1117 26
2 1
262 64
161 0
261 22
739 31
656 8
149 9
1314 6
140 0
277 64
266 14
717 6
363 47
79 31
396 11
490 6
88 3
530 8
1074 3
612 11
1183 14
720 31
826 4
9 3
253 64
554 12
447 14
19 18
878 11
733 6
1070 18
330 14
834 15
390 6
232 8
302 14
46 8
51 14
667 8
157 7
794 4
1117 64
374 6
219 35
706 1
1038 8
398 1
462 8
49 6
623 11
469 3
1293 7
257 8
168 47
663 4
795 4
609 29
1058 3
76 31
326 12
261 27
174 8
1117 14
11 9
501 4
693 45
572 8
55 7
1115 0
283 51
767 24
1255 6
510 6
1035 18
104 6
615 18
29 40
304 14
5 1
110 11
1312 7
624 8
613 15
28 11
65 21
114 6
209 8
1046 14
929 64
498 2
404 36
962 11
910 64
721 31
932 9
400 13
1134 37
700 7
340 21
389 13
783 15
162 2
541 64
503 0
173 64
874 11
1314 17
1222 0
906 1
219 12
560 27
516 0
379 6
690 24
1032 64
114 27
957 64
26 6
215 61
1316 32
986 51
650 64
166 13
128 10
1272 7
189 11
1147 8
33 2
506 75
224 14
551 4
254 8
291 41
400 7
363 8
930 42
879 31
331 11
95 12
48 4
525 14
663 7
343 3
33 26
1081 14
255 40
639 31
614 41
137 6
7 11
561 4
774 11
97 31
629 9
1296 12
790 7
28 4
1223 8
363 32
667 11
217 13
259 6
407 0
150 9
722 28
248 4
502 8
447 25
61 8
350 11
470 0
492 8
316 16
1152 22
658 24
762 11
600 2
802 2
636 41
494 8
5 7
184 8
231 12
31 42
557 6
1126 4
312 0
158 63
845 7
400 12
279 64
841 37
1000 8
303 6
343 1
490 64
168 6
356 91
330 16
232 4
76 3
396 3
102 7
927 8
330 12
134 9
346 6
961 4
490 11
381 45
715 30
268 14
260 8
318 14
500 11
646 4
1314 18
555 4
991 6
239 18
611 3
1084 11
1099 8
114 11
90 6
549 3
525 2
481 3
65 6
347 1
1120 8
1316 31
1194 1
1311 3
618 18
219 45
342 40
639 6
486 8
24 31
14 1
701 7
632 11
205 37
841 2
916 8
481 64
552 8
114 7
1062 7
736 11
44 4
335 2
5 16
754 14
189 6
240 14
350 18
1289 6
275 25
411 7
213 6
356 92
1129 20
303 0
251 6
1201 1
534 4
1255 36
519 8
257 6
136 26
802 45
866 6
158 19
259 18
326 4
733 2
496 4
237 2
63 8
1024 26
1298 4
807 4
332 45
728 4
816 16
744 2
9 24
19 23
373 12
309 7
340 15
322 8
240 7
462 27
556 11
406 69
238 4
217 75
326 7
451 24
104 9
479 11
615 4
66 8
1034 4
154 4
360 64
1314 20
357 4
331 4
171 64
1235 3
731 8
1298 6
356 12
279 2
222 11
732 3
1285 9
492 4
312 24
1285 16
569 8
494 12
484 17
502 2
896 6
809 8
389 0
1179 37
16 3
275 51
1095 30
1232 2
1138 14
439 31
233 7
322 37
326 6
99 7
353 4
932 4
123 25
719 8
123 8
881 0
878 8
836 22
441 24
374 11
94 33
296 3
982 11
548 13
46 7
59 11
500 8
581 1
748 7
358 20
565 0
568 7
564 0
356 13
91 8
447 1
1123 6
814 7
684 4
168 3
1205 1
843 14
1262 37
748 8
316 20
935 8
257 0
25 31
67 4
1 4
886 14
245 8
268 8
183 63
455 8
836 3
467 7
255 41
951 8
458 7
151 11
841 18
549 31
83 6
497 8
270 14
621 8
219 30
1032 8
1201 7
79 4
407 2
827 8
219 8
616 0
623 41
1285 18
1250 13
296 8
442 1
905 26
12 4
1297 0
892 1
0 4
1250 8
1303 5
769 8
1291 82
257 31
19 31
1240 8
384 6
891 11
176 3
187 7
355 16
439 14
701 11
102 8
213 16
106 32
1084 64
672 8
6 8
330 6
1253 6
130 6
96 2
841 24
349 64
278 18
248 8
439 1
1287 4
502 3
219 18
529 31
1273 64
398 3
213 9
49 12
108 54
148 0
363 4
863 3
660 4
200 0
123 30
320 6
160 13
86 6
346 16
373 24
1243 7
498 12
318 11
952 6
1007 8
368 30
325 4
155 7
643 42
332 6
227 8
134 29
345 3
215 67
281 20
466 30
176 54
137 18
319 3
289 22
591 30
324 3
165 31
5 2
557 4
561 26
700 4
257 9
171 3
219 42
1192 7
1033 18
220 35
157 8
94 18
214 7
1034 7
801 16
274 2
191 13
117 0
449 6
346 21
749 8
143 19
616 2
569 26
422 11
505 8
726 7
134 8
144 6
94 16
28 39
13 3
677 7
1271 14
70 21
873 8
618 6
1311 24
379 64
322 30
1296 16
639 7
107 3
21 36
955 11
855 8
781 8
401 6
618 64
372 18
215 51
851 11
429 8
389 7
824 8
181 11
618 8
955 64
168 20
287 8
62 24
292 12
600 1
1036 31
1054 8
393 13
0 10
643 3
347 10
153 34
340 66
598 0
1272 8
1012 37
1292 8
65 11
1001 6
380 9
1304 11
298 30
648 9
157 25
219 6
1048 0
171 6
761 14
4 8
305 8
144 61
68 14
131 24
1021 4
57 7
302 10
187 18
1090 103
355 27
563 41
215 69
901 37
835 42
569 36
293 11
255 37
855 0
618 2
492 3
803 2
185 7
868 8
334 6
388 0
84 6
49 8
1085 4
104 8
346 1
262 31
401 48
343 8
137 3
570 6
64 0
244 51
238 11
191 4
959 64
112 14
911 64
183 66
923 11
812 2
650 31
754 7
1097 47
632 7
1275 11
721 3
166 8
1277 4
199 0
882 2
934 11
917 2
929 42
393 0
1167 0
563 31
569 41
232 20
48 11
6 2
1293 25
5 12
197 13
1152 1
906 67
1314 13
206 30
1158 7
283 7
254 3
266 23
91 30
380 97
779 6
328 81
656 14
306 22
509 12
1178 8
1303 3
215 31
466 4
76 6
287 16
419 11
20 3
390 12
222 34
766 7
421 8
332 18
221 24
46 25
810 7
391 66
1276 7
787 11
902 26
161 4
139 0
90 11
759 8
146 8
254 26
119 3
254 13
701 14
281 11
170 3
663 26
114 2
491 5
190 2
1152 30
545 62
316 12
328 0
494 31
465 2
558 64
625 11
386 11
302 4
601 11
243 21
300 2
843 3
78 13
167 7
358 61
1152 8
825 8
741 4
189 4
1035 42
733 31
234 30
400 30
1085 16
980 24
1065 6
222 3
1013 6
1296 4
244 11
441 4
695 11
157 3
355 7
636 26
583 16
275 41
337 9
669 47
1235 31
567 3
216 30
330 24
769 0
902 14
955 6
563 2
890 1
91 50
207 1
481 29
1301 9
182 21
356 7
167 9
148 13
168 7
424 8
1162 14
924 36
255 64
452 1
15 2
36 14
345 11
1100 4
328 72
63 7
418 7
245 1
356 3
6 23
815 24
302 85
479 3
206 8
483 3
1091 25
64 11
564 8
194 2
889 1
415 4
346 7
29 6
634 11
326 88
491 64
16 29
469 11
1049 6
476 14
835 6
1097 11
573 7
349 12
394 0
164 3
486 31
170 64
167 19
285 11
1311 26
522 14
1001 64
1312 28
1015 26
1252 37
172 26
903 26
459 14
225 7
921 2
259 0
1139 8
353 6
1020 14
900 36
960 6
581 8
363 7
255 4
362 11
217 52
662 8
291 66
261 8
277 8
841 46
1231 12
326 66
104 20
181 64
373 8
302 63
480 30
715 0
1036 42
439 2
576 4
255 8
639 4
24 14
55 1
1151 42
215 8
318 18
619 6
773 8
195 19
581 6
569 6
158 23
522 1
1036 7
224 24
613 4
793 7
639 28
1009 9
921 42
355 14
848 24
255 6
1063 8
256 12
1030 6
72 45
262 7
1249 14
1270 8
194 31
224 79
24 8
283 16
1037 7
604 2
7 4
748 11
1228 11
351 6
708 0
847 13
641 7
1020 1
1122 0
602 24
93 11
1308 8
228 8
632 4
1276 24
255 31
834 4
191 7
799 8
273 8
1117 6
76 7
393 7
275 11
1044 37
116 8
39 36
1276 4
265 3
561 2
1123 4
136 14
851 6
1070 8
717 42
875 4
279 62
468 11
340 20
836 7
350 34
553 11
54 6
1116 6
1016 4
1050 64
1046 4
262 1
489 8
943 7
984 11
835 12
162 31
125 11
1029 3
506 26
458 1
24 1
789 0
557 37
287 4
328 89
225 47
389 4
804 4
503 31
37 26
610 64
855 2
188 42
258 0
779 18
262 8
507 8
31 6
639 3
636 20
80 48
330 51
578 6
1152 7
935 62
217 22
215 6
642 7
299 7
807 1
355 66
1155 0
319 8
451 2
506 8
1269 0
281 2
273 9
450 7
1284 8
512 31
339 7
509 26
732 12
631 7
158 30
107 1
843 0
813 36
114 30
946 23
1246 13
94 7
142 9
1285 4
278 12
1212 8
92 1
1270 7
896 41
615 0
190 7
105 8
298 51
1248 64
349 9
302 86
1093 26
964 6
1271 12
239 1
475 11
633 8
458 25
920 14
1250 1
1231 4
520 11
291 3
502 7
108 7
450 4
625 8
258 18
114 9
637 11
439 4
139 4
803 7
1076 8
1245 4
1266 4
14 3
393 3
219 3
209 16
366 7
757 7
61 14
851 8
943 6
616 11
1095 42
1204 14
206 11
579 0
217 72
162 22
1015 8
748 4
1293 30
840 32
500 2
728 11
667 30
160 26
238 8
542 36
1096 9
526 8
168 4
809 11
1051 8
94 8
328 24
183 6
702 7
555 2
1293 6
945 0
1091 18
395 64
70 31
1226 4
399 6
221 32
229 11
712 14
217 64
946 8
320 64
567 0
1258 19
257 10
1153 1
1125 30
682 1
251 66
269 7
446 4
232 1
843 13
340 18
558 6
517 7
1043 31
393 8
960 30
1227 7
375 27
2 2
291 6
259 14
539 0
1128 11
302 9
207 2
340 26
949 42
155 1
1069 4
340 40
332 8
557 28
1013 7
281 40
6 25
906 8
525 73
704 7
1265 8
862 64
1197 13
222 30
1088 64
1091 8
374 30
1026 47
326 19
391 10
259 31
18 8
59 8
275 3
1215 1
144 12
627 7
187 3
318 0
70 46
303 8
356 93
282 8
1043 14
803 14
738 11
327 25
1116 29
279 6
862 6
57 8
1037 3
262 12
1055 8
263 8
165 1
989 8
209 40
714 14
183 61
67 11
283 64
237 4
221 8
265 11
1036 16
505 26
538 24
1024 12
330 18
1056 14
398 25
51 24
612 24
255 2
22 8
211 1
884 3
616 1
859 7
1295 4
302 8
261 6
462 6
545 6
265 4
1132 37
125 12
1312 29
922 8
159 8
710 3
91 26
320 22
148 7
955 73
236 11
236 4
723 13
1083 42
1217 8
18 1
881 13
91 20
257 37
1082 47
1123 10
733 36
902 8
895 1
893 37
191 8
709 11
270 4
888 6
715 6
265 37
845 8
14 6
923 8
891 1
1183 1
958 3
1316 27
306 37
710 0
3 1
1253 0
1152 6
218 3
95 6
1296 6
511 4
702 1
608 14
1085 37
183 9
299 2
42 23
1312 11
193 3
688 11
1290 7
88 8
71 7
312 6
766 11
534 28
224 76
21 2
1316 2
920 26
623 4
1078 7
790 11
835 22
1273 0
1075 3
770 24
161 8
477 1
675 31
350 4
186 4
131 4
599 0
368 9
183 8
131 8
29 0
144 1
1020 7
206 64
843 6
1035 30
538 8
403 6
330 7
0 1
1278 0
944 7
960 31
445 26
302 30
137 30
266 6
934 8
318 42
14 11
189 27
503 3
922 42
251 4
891 14
28 7
172 65
684 11
1250 25
615 14
1013 8
514 29
914 14
801 20
215 37
713 8
817 45
356 37
316 8
927 2
1311 11
303 11
761 4
217 35
1182 3
859 27
1177 8
1315 8
1126 7
225 24
364 64
1190 1
355 3
571 4
502 6
1005 64
1135 37
294 4
165 22
655 8
126 12
457 11
1149 13
228 1
329 4
330 2
334 23
169 4
108 0
373 7
1093 7
258 20
896 7
206 37
163 9
733 8
496 2
560 99
228 6
576 11
331 0
457 26
224 16
219 7
374 13
559 8
1035 7
193 8
1291 8
1085 9
603 62
496 31
266 2
45 3
358 8
584 9
275 18
162 24
1314 8
792 14
197 7
792 4
836 18
75 26
285 6
114 55
211 3
328 13
158 3
532 31
838 64
916 2
83 26
731 64
1034 0
244 8
168 28
144 8
1028 8
237 65
216 42
1285 51
1101 14
606 10
707 14
233 1
681 7
1252 18
266 3
398 24
1085 18
303 41
772 1
18 3
22 2
320 3
470 7
1010 64
432 48
1088 8
944 8
59 7
29 2
239 6
911 6
254 47
80 8
785 11
502 31
1110 37
228 30
804 8
1139 14
148 37
1091 36
885 12
774 24
921 1
1276 22
391 7
1041 14
171 11
211 15
291 4
181 52
707 1
76 25
928 42
693 7
611 7
302 0
885 1
810 4
973 37
161 11
595 4
126 7
31 9
489 2
554 8
148 10
21 8
384 64
353 37
1119 13
298 4
628 45
160 1
469 7
962 0
838 29
206 2
301 1
208 64
764 7
770 7
792 24
471 62
526 11
547 6
124 0
968 8
704 26
656 29
715 32
1314 11
932 8
100 6
1248 4
328 8
783 8
731 12
1128 8
1246 8
0 7
409 8
545 18
259 53
690 8
736 4
571 11
123 11
376 8
549 0
514 3
217 61
218 11
701 26
1152 14
103 8
481 12
1169 8
1045 64
193 47
281 41
1080 11
177 4
462 12
636 6
183 16
211 27
197 31
146 2
827 0
102 42
322 3
737 11
121 9
255 11
624 9
510 2
609 3
321 2
67 8
1302 3
537 0
837 47
880 24
959 6
725 8
877 31
500 31
1271 4
6 11
339 8
1152 3
1161 0
683 11
606 0
545 7
686 4
968 13
653 46
588 8
318 36
389 1
24 2
316 4
721 7
272 66
633 14
702 2
177 3
723 2
332 4
504 12
691 11
266 8
1252 48
1089 9
350 6
1262 8
146 9
194 8
135 4
413 0
1293 12
256 7
283 36
160 6
732 2
473 64
222 42
20 11
548 4
325 9
80 9
1278 8
298 18
95 52
113 0
1046 7
1106 6
301 11
1053 8
1151 18
496 14
190 1
1312 12
682 8
157 12
981 4
1211 14
95 42
1285 14
707 7
106 6
1244 9
326 15
854 6
230 66
125 3
722 29
614 19
329 0
485 6
391 6
583 8
636 4
1229 8
373 4
261 12
778 4
974 6
187 30
722 31
300 4
367 7
821 7
104 18
255 12
195 12
874 8
39 8
922 4
228 0
1125 6
29 11
213 41
64 26
279 7
254 11
602 1
617 4
342 41
1285 13
455 37
303 7
669 30
360 7
1279 6
461 3
908 2
1244 7
960 64
303 37
41 7
219 31
960 42
980 9
220 75
358 9
912 8
1241 7
286 6
410 2
477 6
262 2
118 11
896 8
1003 6
256 37
316 13
167 36
262 11
887 8
134 3
258 7
97 4
343 12
332 9
21 3
64 6
510 10
960 4
921 9
1236 14
1115 3
161 24
139 3
1276 6
257 2
884 1
289 4
1236 1
775 7
791 4
805 24
388 8
11 14
243 4
415 8
486 98
857 6
470 48
761 11
30 3
162 37
332 31
266 4
865 1
286 9
754 11
566 0
232 22
1072 7
841 13
216 6
33 20
512 20
859 6
445 4
699 4
371 4
412 4
261 24
359 3
282 4
298 13
298 16
221 6
303 42
171 9
1036 8
1038 6
324 7
558 8
148 9
546 7
144 36
171 4
228 53
560 2
596 8
259 8
162 11
328 37
332 12
1024 14
1017 3
258 37
755 2
293 64
1033 8
371 7
91 47
237 3
1265 1
206 6
360 6
223 64
231 64
214 6
56 4
1134 2
172 7
1066 8
254 10
837 4
939 6
721 92
216 0
538 0
237 7
766 20
1311 64
57 11
218 64
402 6
261 4
1195 1
578 14
715 11
68 7
1128 3
196 26
882 14
634 7
326 11
574 11
266 41
224 6
91 15
1142 14
241 0
372 21
1314 21
841 8
1101 64
553 31
924 20
51 1
1057 7
859 24
18 14
696 4
466 3
1072 12
161 2
663 14
1079 11
637 4
564 29
997 8
804 11
1069 11
520 8
158 11
133 8
1070 30
332 11
404 4
502 30
575 62
181 5
528 24
137 7
491 8
811 8
468 4
1054 47
181 18
1101 26
355 30
813 20
326 13
1084 6
1143 0
1285 30
903 6
976 14
51 3
342 6
1309 13
25 7
1 0
1249 9
89 47
891 8
334 29
222 7
153 29
803 3
1280 0
623 31
562 8
862 23
873 37
125 58
334 12
610 6
847 2
731 11
634 8
224 7
1090 6
746 1
291 81
239 14
1024 24
540 4
1139 1
232 18
373 33
1228 8
1250 14
885 36
330 13
219 2
243 6
322 13
278 6
244 31
763 6
188 30
272 27
18 32
189 7
182 18
391 8
1293 0
768 11
1039 11
374 8
615 8
935 26
183 7
746 14
279 3
720 24
879 12
1154 8
1126 31
1119 8
251 8
1250 7
882 0
21 11
1260 42
715 64
569 11
91 21
1084 14
222 18
861 7
239 7
980 48
212 25
0 5
496 6
45 18
287 11
222 64
221 13
209 11
671 7
18 33
56 8
855 12
298 8
262 6
26 3
165 11
1180 1
617 2
158 7
302 24
1291 11
859 37
498 11
302 2
419 4
689 4
1296 13
574 6
14 4
290 14
472 8
326 3
167 12
162 41
195 8
203 6
632 16
345 12
254 14
162 3
124 31
187 42
239 2
232 3
886 1
390 47
8 10
298 15
878 46
715 2
217 37
1171 3
972 12
232 11
510 64
723 4
1049 64
356 18
73 4
475 3
389 8
324 64
181 8
249 4
328 1
403 14
1041 26
1276 11
617 18
502 24
146 6
28 38
14 14
221 34
840 0
298 63
1073 14
880 3
706 11
1181 1
176 45
1168 7
632 2
1209 8
496 8
397 6
796 24
144 11
503 6
163 0
392 4
392 1
134 6
5 9
81 7
738 7
534 2
356 94
715 42
243 2
162 0
23 31
659 8
704 4
222 6
1082 8
183 12
457 1
319 12
357 9
224 37
144 3
254 7
788 4
93 21
485 36
1013 31
1303 2
1248 8
165 16
1090 7
19 11
1300 3
254 31
358 6
994 4
311 0
1296 1
1006 7
622 11
358 36
1203 8
841 6
1299 1
318 30
302 20
296 7
494 10
1271 8
605 11
1024 6
93 20
275 24
608 6
358 12
906 14
793 11
1257 3
474 0
534 3
782 11
731 23
800 7
328 85
731 6
656 45
715 18
19 6
1282 6
445 14
197 20
173 7
614 42
268 1
31 3
291 64
330 4
177 0
839 0
211 4
1066 14
480 64
51 7
570 11
95 30
556 7
328 6
506 6
657 6
886 8
373 32
998 36
916 26
1002 13
161 6
1085 17
91 14
82 0
5 20
1302 7
715 7
46 18
166 41
33 11
1152 42
374 3
500 1
278 25
847 8
76 42
1091 24
587 0
57 6
667 31
1232 7
1254 31
226 1
268 4
106 1
450 9
1085 24
470 9
195 0
328 11
480 11
32 7
