378 75
149 89
883 78
295 21
411 79
1211 63
40 1
581 71
428 16
207 98
812 15
716 95
393 58
87 38
1274 56
322 51
112 100
865 78
801 13
436 16
502 102
182 53
426 15
560 38
1198 35
1212 80
269 21
1032 95
515 83
1180 77
979 27
1050 55
263 17
694 36
975 29
656 96
400 104
732 32
130 12
1030 74
47 38
26 29
971 47
872 64
931 49
207 82
794 15
1243 51
1245 21
620 36
388 3
1279 98
619 95
494 26
1269 90
735 99
1291 65
853 43
320 40
208 49
265 56
752 86
1124 8
887 82
351 35
650 46
1110 34
1244 78
348 9
1132 83
1118 15
209 100
320 12
420 62
1069 28
57 95
229 42
155 33
96 23
311 79
266 72
795 86
941 35
579 100
1311 77
167 100
853 3
572 72
946 37
1139 96
391 38
130 103
1237 1
665 95
736 23
434 8
1271 21
677 78
869 6
1096 60
900 80
455 42
756 6
1113 104
734 62
716 100
788 77
1062 28
369 24
598 87
621 104
539 61
368 56
1087 62
432 71
1111 7
1278 79
879 63
1110 29
1066 22
1126 51
911 1
1127 74
784 70
1038 78
1039 43
390 96
1263 35
710 60
1087 74
547 14
516 79
680 82
102 55
304 96
246 99
1210 95
1093 38
1106 91
48 63
461 38
867 17
483 99
908 38
293 56
619 51
817 54
439 79
834 14
348 46
148 1
504 74
750 53
1105 6
493 50
940 21
773 17
1061 20
642 15
466 104
365 33
335 36
1272 59
192 48
850 13
343 89
281 73
386 35
272 64
613 20
507 65
820 17
448 81
764 15
325 27
159 17
1128 19
540 26
1270 17
1179 29
906 44
685 81
231 100
129 45
594 77
970 75
717 98
1216 89
1062 79
359 32
601 41
1014 59
235 47
965 49
710 43
1089 85
133 41
734 38
329 26
1174 71
1309 28
1002 3
602 46
86 94
105 81
75 58
915 15
854 70
1154 7
477 100
1067 36
408 34
1007 64
385 48
735 50
486 71
1179 12
872 75
1120 40
75 74
997 16
858 60
1298 62
895 19
734 83
296 0
938 22
10 59
311 39
261 43
517 74
1023 62
549 73
656 78
853 19
562 91
151 12
209 23
223 49
1110 94
996 55
4 0
855 86
1077 19
1065 8
453 19
307 20
518 8
879 28
652 13
804 77
1114 14
410 81
1212 56
470 94
806 14
1191 40
1254 98
77 80
959 81
306 28
1100 65
1035 15
606 40
1250 21
402 75
972 47
674 103
1291 71
1106 85
1030 41
1208 48
913 75
891 104
490 24
416 29
1207 98
636 71
710 15
924 64
861 33
1118 65
179 98
504 87
1122 99
188 39
304 80
721 21
221 100
680 11
1266 100
617 47
1025 64
1001 61
77 59
483 87
1229 53
887 104
548 22
574 33
96 49
249 19
874 86
401 35
775 29
1045 53
696 70
956 3
996 73
525 85
594 71
173 19
844 42
697 34
369 43
6 89
1070 79
1100 42
829 54
1062 42
747 83
262 80
1125 24
925 46
169 99
396 26
898 75
1004 34
652 56
1174 32
809 46
1170 41
1080 91
850 98
452 20
1077 41
694 41
120 71
37 28
301 45
681 49
836 44
789 27
789 43
1250 78
372 82
548 45
1236 51
935 37
583 7
23 73
1225 42
716 22
199 100
1061 33
1281 12
180 64
351 58
78 36
1133 22
816 78
954 7
1309 71
851 77
1295 51
716 59
1036 33
441 100
237 99
1266 60
34 73
362 100
120 72
481 0
885 87
1144 36
785 85
557 0
246 59
574 37
421 83
193 44
899 81
922 72
757 70
549 100
1088 12
763 47
559 75
255 53
802 61
621 58
714 43
1312 36
1137 11
885 96
257 62
612 73
225 9
731 100
41 43
720 60
655 1
253 43
739 44
984 64
770 45
192 85
165 63
1284 54
198 35
44 40
574 51
1148 90
763 86
97 62
1281 23
31 100
725 62
387 91
85 28
325 6
772 20
1299 81
425 82
11 40
658 50
819 89
741 54
306 36
1138 95
1305 16
218 40
1042 42
140 33
218 24
357 14
908 103
1229 15
253 87
464 3
190 41
69 20
186 37
1170 55
148 64
1107 33
489 40
547 86
824 41
812 41
363 56
1184 12
200 89
767 45
150 24
573 47
618 47
277 75
179 71
96 53
898 54
556 63
1216 78
536 56
1248 26
943 12
709 44
1277 8
1066 49
996 17
1174 86
963 104
1012 86
172 41
204 103
454 16
761 79
1237 11
646 53
156 34
960 37
977 75
544 85
140 44
487 63
1272 99
1020 79
928 24
42 59
1179 91
119 49
612 39
430 49
145 91
580 87
674 102
95 19
896 22
827 17
723 6
766 64
443 90
1159 29
992 96
1236 8
835 96
327 65
1077 11
1209 19
938 24
779 53
465 86
229 45
40 78
131 51
731 33
160 35
763 19
396 16
596 17
247 32
651 54
902 27
458 91
36 47
903 87
1156 44
402 17
682 6
441 59
257 51
354 3
225 94
49 80
33 45
74 103
670 6
348 77
36 41
0 49
25 63
181 59
711 46
870 45
688 43
67 7
1253 103
261 99
151 104
472 83
567 7
592 16
1143 16
15 60
137 37
641 95
683 80
166 95
373 77
1065 81
356 23
1314 39
1011 61
514 37
213 82
421 9
921 81
1116 23
907 21
22 94
492 27
493 41
957 29
743 87
582 42
1202 86
497 40
840 58
1212 74
449 91
266 0
1191 26
531 103
659 17
1285 53
798 36
628 9
748 62
616 64
546 15
13 13
851 75
463 40
602 100
1113 73
203 70
403 53
1033 59
533 74
913 96
667 58
288 85
1051 17
516 27
984 27
365 22
28 89
1147 99
951 99
700 41
602 104
622 80
332 74
1308 7
907 74
572 22
664 39
813 26
257 86
822 6
382 64
183 53
1013 27
972 20
126 38
1291 56
1128 37
220 56
952 86
740 102
1099 94
1230 78
706 86
351 102
362 42
394 27
824 35
606 73
1091 70
866 59
88 87
978 86
570 60
14 47
1200 75
892 86
1078 38
1060 96
382 44
312 38
1234 3
170 65
877 34
727 45
649 74
725 96
395 39
139 51
1095 40
938 75
646 100
1123 86
784 59
394 28
917 27
293 71
182 98
74 29
600 99
1243 81
421 87
487 90
948 87
824 12
262 85
486 27
1002 38
196 71
974 34
883 39
686 104
317 73
505 61
1295 89
1266 15
830 54
379 24
760 75
1287 14
815 48
965 29
900 63
653 11
719 83
617 36
56 27
182 51
693 1
316 62
61 62
672 90
778 81
1256 74
872 91
847 96
482 49
1087 82
1115 45
450 89
400 53
347 6
607 87
582 35
427 35
409 73
820 9
223 21
1188 53
538 90
1107 26
908 26
761 75
1036 77
391 14
1274 71
396 87
735 39
338 61
873 35
180 15
1303 19
116 70
568 19
889 81
52 35
287 74
103 39
1315 49
167 59
758 83
1001 29
183 98
981 9
955 75
827 86
909 13
954 81
1203 19
969 98
1201 51
268 7
492 13
1089 102
955 1
1252 95
613 56
1178 86
870 81
1156 91
125 38
368 32
68 12
203 49
864 54
127 82
526 95
1011 96
1132 95
545 28
1250 79
1290 14
791 86
777 28
378 71
276 73
1302 61
1316 83
487 85
1055 11
31 38
3 83
582 100
2 102
764 64
282 0
355 58
926 44
14 89
181 95
501 17
1181 26
799 37
53 91
63 83
184 9
927 74
1053 23
968 23
784 56
92 83
581 35
564 58
1048 12
751 27
951 19
1077 83
594 44
356 53
536 98
102 41
214 55
634 59
24 54
729 29
272 38
580 71
488 86
483 49
136 15
922 104
1167 42
746 32
113 19
168 104
1173 100
344 82
1032 62
208 70
1277 43
603 45
1224 17
874 74
1077 55
366 17
634 19
452 8
1088 81
177 60
1267 21
856 96
753 73
704 89
756 61
1126 58
273 61
1114 71
1175 20
223 51
1196 48
232 34
225 50
1057 40
1141 44
123 45
1152 34
1240 24
335 6
1106 45
282 42
739 49
1073 0
461 46
402 41
151 60
667 50
101 27
969 45
98 15
346 99
478 47
955 86
192 72
761 98
1190 23
563 35
897 102
1217 13
507 12
429 37
162 51
780 21
1173 55
1118 96
699 24
1212 102
1289 14
88 23
1168 42
255 63
843 77
1202 40
1200 80
271 21
740 96
40 0
978 26
175 35
460 42
722 83
598 50
1217 47
1248 54
593 64
1315 94
326 71
226 19
668 26
1092 71
141 77
804 32
533 38
355 33
325 70
915 83
997 71
333 53
139 36
362 65
1046 102
97 87
1220 81
795 91
923 48
1006 24
978 8
1174 16
528 9
665 9
4 46
830 53
607 99
683 58
949 36
1290 37
1285 48
577 53
1195 43
34 98
951 63
576 39
457 98
775 80
1108 40
495 34
1209 13
1248 47
995 90
272 65
876 21
150 87
363 42
1015 9
135 41
905 42
1260 26
1163 79
757 49
82 63
1078 54
187 1
787 35
1296 17
401 96
1113 17
455 103
56 43
1092 34
1132 27
316 15
736 6
329 90
312 86
826 36
1283 12
775 55
1167 34
290 15
884 27
1086 71
414 6
96 62
601 46
733 48
8 53
1134 77
435 71
650 13
1074 59
395 13
601 35
922 35
1207 104
485 56
1137 71
424 32
60 32
309 47
884 82
808 37
323 17
610 71
337 79
1030 11
96 36
509 51
45 89
138 90
372 98
739 98
698 47
101 100
195 37
57 12
446 3
578 15
842 8
279 29
212 74
906 11
132 24
36 37
325 82
637 19
582 43
1306 75
936 40
1164 83
828 8
557 104
832 63
74 80
492 15
986 47
1012 40
448 80
539 98
418 94
651 24
949 102
880 12
927 7
803 86
304 51
891 40
1135 17
484 34
334 87
549 99
1070 39
399 0
1273 48
1243 16
386 102
941 26
60 44
106 77
977 43
886 3
82 8
1124 21
660 8
1023 32
914 38
1144 16
296 17
183 28
696 47
1046 99
623 47
7 55
1268 43
1304 61
1091 21
1215 103
1149 72
1222 17
279 89
511 53
1172 73
152 100
459 45
772 37
826 62
478 64
966 41
1289 33
802 62
714 73
283 0
1005 33
974 63
419 95
411 75
574 71
1127 58
406 70
1064 90
999 45
314 71
246 48
409 12
857 49
525 51
502 100
108 48
26 60
1052 45
1083 9
86 63
1288 75
1197 17
924 96
703 53
170 22
1048 45
1089 22
734 91
575 20
576 72
414 77
88 58
649 13
1308 98
658 64
1201 91
771 56
634 0
12 13
1046 72
424 6
534 41
918 85
1121 17
201 80
323 37
1133 100
1002 74
769 32
1135 58
1217 27
320 98
295 103
114 50
1177 65
1286 81
846 72
2 16
547 59
1060 22
892 55
583 96
1008 59
654 78
1161 99
431 90
728 24
108 100
1110 80
886 40
281 50
802 60
174 103
1218 9
973 53
568 90
243 60
558 0
1013 96
977 82
800 27
157 72
474 95
725 38
947 63
373 55
1198 21
255 86
824 96
697 16
945 22
1058 50
1275 20
1135 47
849 48
1015 70
658 65
1176 96
738 86
394 74
736 53
1282 103
291 65
1291 104
460 54
529 98
408 26
722 100
440 103
410 86
917 86
211 16
647 71
255 60
288 21
1169 40
850 103
973 23
1094 39
1088 85
812 103
967 8
200 72
254 54
1182 34
1202 21
1160 43
362 89
210 83
960 58
593 55
93 17
488 63
1075 89
778 33
527 8
668 1
590 82
631 54
882 43
1064 40
506 79
84 62
322 77
215 99
25 35
265 15
1020 26
508 77
224 86
235 70
698 91
277 0
778 86
21 53
1229 91
729 98
208 86
550 13
294 33
625 22
176 42
85 79
438 16
1058 61
880 23
947 87
1060 32
451 65
923 1
589 22
566 1
1271 40
346 44
1303 38
651 99
1291 49
1047 23
145 45
386 7
571 56
1120 81
1104 94
1121 15
733 41
638 100
39 45
651 71
924 35
492 35
283 87
224 56
11 75
1032 12
189 1
704 63
44 15
444 37
1170 95
458 64
1091 91
284 15
1103 29
1250 104
1311 9
215 42
938 81
295 3
709 81
809 86
727 32
915 38
559 80
959 35
835 36
346 51
1197 43
136 41
488 35
1144 32
46 45
6 91
147 20
567 100
1228 47
414 44
610 75
761 12
1185 50
721 12
999 81
707 79
677 63
798 104
1103 78
1072 27
1133 71
178 71
1212 47
1290 86
152 42
454 24
474 45
984 47
71 8
602 51
898 99
371 46
112 77
788 100
241 60
966 24
1015 13
1232 46
554 28
21 87
1099 85
877 62
926 42
1235 16
178 90
664 65
44 29
946 63
152 36
978 3
142 87
627 83
846 54
357 100
1205 22
1094 90
314 75
400 50
1280 32
832 7
1188 49
369 78
1191 83
990 51
576 14
96 27
210 17
159 56
1146 39
925 40
330 72
1148 47
773 26
395 72
600 12
1177 13
601 43
639 72
17 23
508 73
1262 11
12 75
1053 41
1131 16
477 49
1257 53
365 56
494 73
545 86
674 94
97 36
898 46
326 54
718 7
503 74
448 0
556 45
884 34
728 63
510 60
504 71
139 17
654 12
1151 17
568 28
927 60
74 56
921 104
435 89
1043 54
1243 71
1245 74
598 7
1139 33
119 59
580 22
1296 82
116 42
942 13
1102 21
727 33
308 41
1063 86
576 70
437 63
1009 91
198 49
844 82
614 24
581 72
274 62
1289 85
674 45
783 91
339 14
1246 14
418 29
355 94
1184 63
1154 41
61 87
72 77
427 44
377 36
82 13
1239 12
888 28
1140 102
784 96
693 28
1277 14
862 98
344 36
446 91
682 82
472 103
340 16
1282 46
277 86
866 80
698 94
666 77
240 80
1234 42
880 8
748 61
93 56
1172 36
1294 96
515 39
528 95
693 43
68 11
73 19
546 17
63 23
917 50
328 74
1190 51
90 0
514 65
752 42
239 99
1286 26
1203 12
456 62
1284 90
404 35
649 36
23 103
361 13
1265 47
243 49
1151 39
151 39
39 35
1235 26
997 73
592 86
1132 49
1203 63
466 90
976 43
612 56
1282 44
88 22
637 29
1013 98
209 26
1000 73
214 86
1206 39
47 23
148 80
1285 103
999 20
201 29
800 81
810 77
297 56
40 47
1031 91
408 43
802 37
482 79
1299 58
1130 22
1271 71
1308 6
333 39
783 65
419 29
54 41
524 28
551 104
201 61
596 1
1002 81
1139 70
995 20
555 89
287 20
348 86
992 56
1142 46
441 38
978 96
681 100
827 91
270 98
577 41
889 36
810 22
390 13
204 9
518 39
18 82
360 3
716 14
190 48
1148 95
1011 20
403 27
606 41
1064 85
831 49
507 50
0 104
1242 74
1150 6
1122 40
736 80
1253 22
1268 85
734 86
1160 58
723 15
248 14
1290 98
87 0
1231 75
535 51
846 22
791 43
142 78
150 38
354 58
1220 75
873 82
654 56
73 51
353 79
666 9
147 8
34 79
1106 89
745 29
1084 100
810 85
1199 96
1059 78
1066 28
744 35
1191 51
860 11
294 23
758 54
595 102
1106 37
690 87
295 63
216 51
503 49
968 78
392 41
1141 78
1192 22
1029 38
1173 98
304 7
999 86
1006 48
590 103
424 87
630 64
446 54
362 86
534 63
1076 11
636 43
1049 102
621 40
1280 71
732 72
1048 75
70 43
739 70
443 81
1223 9
1288 45
54 61
413 103
317 86
797 81
896 27
53 6
629 60
183 62
847 15
79 24
1144 33
333 26
975 16
568 86
1205 86
385 11
698 50
402 43
613 29
544 22
1248 46
976 53
572 44
759 11
1204 40
477 34
831 80
483 64
637 95
343 38
799 22
84 86
1169 20
822 22
931 95
204 32
632 72
1099 26
313 73
199 15
958 49
226 50
803 103
970 100
795 27
228 75
504 50
569 82
305 13
15 103
241 51
426 63
80 23
1102 80
232 36
981 33
978 56
400 17
402 53
1191 95
521 47
669 35
722 63
1052 79
1279 24
823 51
1128 65
708 19
909 64
346 82
439 17
1165 62
522 17
650 40
107 90
884 73
420 91
1000 40
464 58
1067 82
678 85
925 73
928 72
1299 59
446 102
717 50
558 85
780 72
679 79
430 29
58 41
207 65
642 72
1004 50
789 12
519 36
398 23
1267 63
497 74
1139 19
575 79
651 3
258 22
687 14
627 99
1018 96
796 19
912 13
174 39
333 74
1292 26
807 47
474 47
12 35
769 65
604 26
752 87
1173 89
424 82
527 38
724 36
51 17
155 59
1152 32
566 98
288 34
1303 62
1 59
941 47
344 98
399 40
520 83
359 79
89 61
1052 28
725 42
1195 82
168 0
629 49
903 27
112 46
490 63
917 98
205 100
1265 90
1040 79
84 65
173 37
1128 58
759 14
1159 40
317 99
1121 100
578 21
1296 14
312 72
271 56
852 15
38 44
970 8
1089 53
27 55
689 1
154 39
922 21
1051 104
104 59
728 62
1116 56
610 39
156 74
47 11
424 48
1111 74
393 16
1232 16
200 29
1215 72
446 16
598 90
1128 103
191 74
89 86
28 50
1052 15
419 3
593 48
1054 40
103 53
988 89
48 49
1231 47
553 61
1023 22
245 85
790 59
1063 94
217 77
48 60
281 26
619 86
364 42
265 53
199 1
371 40
711 62
561 23
909 21
532 45
366 78
886 78
1290 61
244 41
1249 11
984 13
451 12
722 53
749 41
1132 11
1191 85
1018 54
236 22
829 73
455 85
983 41
160 46
527 26
609 48
958 70
1169 48
590 91
406 81
347 82
168 9
1000 29
691 13
419 61
1201 20
848 91
768 28
323 39
464 51
685 96
855 47
85 50
589 8
1005 100
892 23
1047 40
481 13
1094 75
91 35
143 85
762 83
869 64
60 39
681 54
1095 34
86 28
1208 54
150 74
1157 82
405 23
340 24
434 29
770 72
1188 61
1301 16
1036 58
323 40
125 89
815 95
396 79
420 77
299 37
27 100
882 83
1308 12
220 6
534 81
557 21
881 6
767 40
225 59
564 44
1009 53
329 34
772 81
145 96
551 59
997 13
1014 35
299 17
711 6
529 73
265 29
526 87
140 91
1107 13
459 96
526 7
87 96
718 96
980 51
706 39
353 102
47 40
501 82
467 75
1233 56
1095 43
1129 59
1132 17
384 28
557 40
1026 79
1060 73
1230 46
272 24
240 3
451 77
317 42
1289 32
918 60
19 104
68 104
629 28
1178 72
274 19
1113 70
1004 17
395 46
422 29
378 0
925 22
263 43
843 85
310 1
93 15
628 53
386 71
303 80
1258 91
1098 35
655 74
108 56
427 53
16 48
464 63
829 8
1219 86
514 41
22 24
1216 90
807 96
294 50
227 23
395 98
59 91
610 42
570 22
1006 0
610 77
585 50
254 55
328 77
693 8
692 54
348 24
1195 27
1210 37
285 13
207 81
1265 78
540 42
1163 42
1078 29
967 50
741 46
262 50
337 103
208 1
320 56
27 22
1239 53
1169 43
510 27
475 85
998 59
885 99
23 78
553 1
1246 90
766 81
568 51
25 43
1136 44
1309 59
731 36
423 28
550 15
146 72
1031 3
462 81
764 78
252 27
697 22
1206 102
759 74
1232 47
208 23
295 53
728 71
765 3
804 19
313 85
830 82
1267 43
424 75
1309 79
589 27
184 12
1036 15
930 44
518 54
942 12
1063 19
1228 80
41 42
437 83
130 16
441 102
697 56
297 41
1269 86
530 80
1217 1
729 85
1107 71
1100 73
594 70
993 38
51 41
1100 11
1289 100
63 71
435 100
1110 64
16 96
360 78
869 70
1266 39
1044 85
763 24
82 51
5 56
165 34
89 89
581 53
1140 39
808 44
395 99
798 41
364 70
952 19
432 91
291 45
581 70
930 78
505 41
438 70
1288 79
19 77
368 86
1310 15
709 50
326 27
478 81
338 32
499 11
73 15
698 45
1316 72
419 103
910 28
956 94
1050 16
396 63
792 102
847 90
1091 95
80 12
308 16
1160 51
1182 89
498 102
1111 59
388 60
620 42
681 21
1117 36
470 83
868 9
245 87
805 26
20 71
939 65
421 73
1136 74
1241 38
1310 29
787 90
1165 86
205 0
818 64
1161 6
198 27
505 75
530 12
810 54
922 3
788 71
222 46
997 26
445 98
252 29
40 28
459 78
569 85
1048 48
959 86
876 83
1053 74
913 8
914 83
447 94
205 42
828 75
108 47
1293 21
214 36
619 94
1113 21
375 64
575 42
590 55
203 22
1016 47
292 77
619 54
788 35
2 38
1175 44
212 62
371 60
1182 35
727 64
1212 59
908 17
1238 61
911 77
19 96
88 47
1297 70
980 90
246 39
387 32
1096 59
921 53
235 71
1234 29
930 103
998 99
187 103
1104 90
929 59
158 49
404 58
123 56
747 95
417 50
1000 54
1086 95
304 102
928 51
127 16
1040 32
1125 26
1299 85
75 13
234 96
700 28
702 58
479 47
476 40
37 43
726 56
505 74
644 13
238 7
3 102
950 50
266 96
906 48
37 34
507 103
227 56
218 75
19 24
750 79
1004 94
302 28
1266 45
1190 74
1080 40
505 38
1274 103
697 20
822 96
667 37
400 15
254 103
461 49
203 78
586 96
1226 45
570 85
667 63
1017 58
1267 56
92 75
959 91
960 41
1019 37
1083 73
30 100
274 28
993 21
877 54
836 73
68 32
1299 64
267 80
444 17
1269 24
612 13
1206 70
991 90
221 20
919 48
253 26
400 72
508 45
1068 64
541 49
510 59
348 79
280 15
519 35
412 90
820 26
730 85
1098 89
802 51
997 28
662 34
576 41
289 81
647 83
968 65
1236 54
455 63
990 7
837 34
359 70
810 6
1234 87
606 33
647 0
874 60
1127 9
571 54
269 40
410 70
706 9
838 54
606 89
838 86
990 21
770 32
268 3
366 80
1130 87
306 86
1301 70
1123 39
59 24
147 12
930 24
115 28
109 35
951 43
1191 43
62 26
652 71
1239 60
1059 32
821 23
137 9
300 65
21 34
521 70
264 96
968 80
1200 27
593 16
420 73
741 89
152 74
980 71
25 45
115 63
324 48
1113 90
1066 24
1064 3
157 81
770 60
1164 89
638 65
415 9
229 100
284 37
1299 9
1288 24
1025 80
555 41
266 90
1080 100
601 45
1119 49
51 29
376 49
877 83
594 26
70 49
950 19
856 34
643 91
868 43
1285 72
30 40
84 39
588 44
140 95
312 11
1070 43
956 15
551 51
1243 48
8 15
1103 89
56 36
1032 40
897 98
1075 59
78 72
812 94
474 27
1220 44
1251 54
278 54
827 26
1031 81
599 61
695 60
373 85
652 50
767 70
1222 48
493 0
1244 104
123 50
1285 90
524 60
189 95
1003 17
192 78
1133 3
511 85
516 94
473 63
378 81
894 103
456 58
904 23
326 60
216 72
709 9
565 9
340 86
733 46
1114 96
1201 12
1190 72
885 24
1285 63
577 47
83 85
490 43
127 102
1130 24
25 21
402 63
429 102
663 24
1293 44
162 71
194 104
866 28
412 50
1178 89
297 9
1075 51
653 102
525 9
1193 47
1137 74
715 70
47 91
605 51
692 7
1127 22
583 79
748 102
94 63
351 62
1173 9
249 50
424 98
1070 54
101 85
473 70
759 99
490 29
901 16
1066 90
1145 100
719 34
1142 81
1192 39
755 51
1028 43
616 55
1016 1
664 94
1106 3
934 64
384 23
1127 46
890 21
1091 53
304 86
476 22
288 78
1279 28
1313 50
250 65
712 38
1094 80
1150 61
759 1
65 61
476 64
1037 85
837 104
811 70
1189 39
1296 58
546 56
1271 16
852 77
173 28
280 33
1184 94
933 56
803 64
1161 72
770 63
434 43
1001 54
1134 44
670 49
1237 62
296 29
1301 73
942 54
668 11
163 35
252 19
1257 50
811 19
561 46
186 39
1222 54
368 48
354 7
1144 9
1122 41
73 61
738 77
657 34
455 32
1210 82
71 103
212 51
902 11
108 83
883 82
371 16
277 43
53 85
303 22
414 79
919 89
174 83
963 7
392 91
1016 103
200 24
141 79
380 3
1074 13
1062 29
732 83
395 89
739 1
99 1
1106 35
628 12
1251 1
947 64
1068 11
40 27
1307 8
64 100
327 58
156 78
432 98
411 34
826 99
526 89
951 59
471 96
414 81
908 19
918 15
256 21
1121 16
1285 34
864 19
705 46
585 22
719 100
766 56
1115 72
460 27
286 34
233 15
319 62
111 100
299 87
84 40
1295 47
694 6
46 50
699 62
714 36
144 20
1200 99
1237 87
426 49
798 63
1306 6
1070 102
869 103
395 60
900 71
957 28
614 72
947 100
805 20
227 20
1154 46
366 36
807 98
1025 6
741 74
648 21
1009 36
1183 12
61 55
457 15
775 42
1130 74
220 43
465 85
456 99
253 90
753 48
219 26
718 73
18 98
1158 89
273 34
762 49
1103 21
191 37
305 39
490 26
829 45
248 13
908 45
829 83
291 60
1001 20
1208 90
1173 12
530 28
286 72
380 29
650 9
579 94
853 41
718 16
1200 62
106 59
1247 9
698 59
109 94
282 70
242 7
754 104
1004 87
1226 89
605 22
50 1
552 83
1021 75
940 20
699 32
599 89
541 13
586 95
275 62
1167 77
980 83
126 9
1176 91
1314 82
1149 28
150 104
352 87
1262 15
68 26
70 45
1295 48
560 78
174 70
789 79
693 77
495 74
874 87
75 8
134 63
701 47
1102 71
1071 37
283 32
1292 39
441 32
828 27
1093 64
269 63
198 16
4 78
1276 96
420 79
788 3
811 14
343 39
305 49
126 53
506 62
1015 28
499 15
1102 13
1084 13
1107 38
927 11
1137 22
766 41
249 8
360 87
351 33
1285 58
167 33
1298 70
1064 81
782 23
158 102
878 54
499 9
1305 104
1056 94
295 19
302 95
1060 47
724 47
762 38
1121 60
33 98
240 62
105 7
502 21
106 53
867 33
242 36
1072 19
189 35
1046 46
1287 36
487 44
488 40
432 46
1019 80
813 94
167 51
1303 78
861 55
822 42
394 104
947 50
769 47
561 80
235 7
1177 78
790 102
713 61
1247 98
907 29
749 39
472 89
352 64
67 60
488 23
149 36
809 103
300 55
1094 78
779 54
488 59
214 29
263 94
1007 72
125 94
327 29
125 28
609 90
178 55
927 51
1141 48
1026 36
325 26
262 103
986 41
805 51
781 78
475 91
757 44
1179 64
509 96
756 35
381 62
363 49
956 79
1016 9
285 41
898 63
505 9
339 71
562 48
189 87
554 65
1101 20
26 96
709 87
655 53
24 44
99 58
406 45
362 29
866 77
1287 44
245 45
190 47
976 96
1215 90
1273 104
1063 36
100 99
109 89
37 55
116 75
1054 27
257 48
790 26
652 40
319 32
543 46
422 23
674 22
951 91
866 48
817 95
936 27
529 28
1141 90
1290 6
1103 54
233 87
821 40
848 95
576 34
764 28
247 45
1307 78
179 87
627 46
385 28
272 78
764 13
1038 49
587 65
988 38
344 34
384 29
936 82
671 24
204 1
858 64
696 78
12 48
1153 73
828 36
349 28
52 100
3 51
6 86
837 38
456 36
822 39
996 46
69 51
480 39
93 12
284 75
1002 42
10 58
548 34
812 48
1185 104
1110 3
793 47
616 104
585 56
593 83
213 48
983 13
516 54
105 38
857 82
145 3
381 46
246 32
423 29
1125 33
207 104
483 59
504 79
102 46
1280 1
1283 72
1055 56
1255 100
652 16
25 80
788 53
515 49
13 1
384 91
987 14
930 29
18 91
525 71
1207 56
1195 21
1026 74
638 41
578 13
956 85
646 37
925 12
214 26
1005 94
606 32
68 60
259 74
1033 104
6 50
826 9
1085 12
285 20
1288 40
473 94
118 70
820 79
722 36
659 14
1035 65
99 9
668 3
8 28
190 72
455 71
853 83
232 48
284 100
1136 95
1215 83
402 65
311 98
501 78
1205 61
1199 91
424 72
1174 3
535 102
228 102
535 91
1237 80
460 55
934 21
1195 55
265 95
191 44
10 55
831 48
1192 85
539 77
1029 61
235 56
767 19
463 21
991 53
1307 14
645 83
1281 40
62 22
206 73
883 47
447 95
279 50
756 12
324 14
40 42
580 104
556 49
515 62
1223 6
1028 1
1245 42
909 80
1278 81
1099 13
520 81
1039 63
488 9
61 79
1060 37
792 45
569 20
332 61
70 72
820 32
497 23
464 24
1113 53
439 71
227 59
597 61
399 82
133 62
697 73
1057 46
699 16
163 37
383 1
325 61
1029 28
924 86
954 22
349 13
1000 99
1129 0
1041 89
118 14
1090 100
1185 85
1249 73
528 86
645 50
140 80
241 104
1009 49
82 64
926 26
1249 13
1231 42
649 32
658 47
702 103
422 44
1245 59
1207 65
959 102
388 15
680 103
322 74
96 54
57 82
720 80
1082 61
720 28
1150 8
729 81
1293 45
1100 43
1156 48
835 89
288 22
1056 28
983 71
165 77
607 9
1299 102
1164 20
706 62
193 86
904 49
425 100
743 23
540 89
1221 19
1260 70
21 96
1034 87
503 47
1105 39
690 65
1161 62
270 64
251 75
875 62
471 91
30 17
911 61
707 54
1190 58
273 73
857 79
158 51
995 7
900 3
831 59
812 59
685 39
762 23
564 54
133 94
1307 83
977 13
957 49
857 103
1298 74
46 79
500 21
86 50
74 20
1065 55
533 27
60 64
235 46
997 98
1104 46
333 77
1081 91
660 59
480 1
39 95
487 24
809 14
480 34
748 72
757 13
1046 32
127 61
1209 37
230 36
495 73
639 100
826 23
464 55
991 27
1186 70
453 9
713 16
1121 99
409 13
457 63
132 39
585 81
1273 49
711 3
972 40
598 14
117 28
248 40
113 70
934 46
770 62
580 59
1194 7
136 34
331 42
1210 54
960 51
464 15
609 17
631 79
110 9
437 102
329 72
369 35
1314 94
1033 63
1262 71
405 47
978 7
40 82
146 62
958 73
1312 39
312 103
428 80
266 99
736 12
792 43
1265 16
921 94
117 45
81 98
1268 13
436 59
286 62
652 80
549 95
666 104
313 19
765 75
991 37
314 100
270 86
533 1
580 100
619 29
255 22
817 36
954 0
513 102
45 35
695 38
42 60
65 19
669 49
167 48
492 38
90 56
982 90
883 81
427 59
1136 11
1097 3
239 95
198 44
404 40
147 9
894 43
1196 41
1013 102
20 27
37 47
1054 82
222 70
354 73
377 73
382 74
1226 77
794 56
162 39
530 42
944 85
740 12
1215 95
1261 90
606 20
870 58
661 34
470 103
662 27
231 55
41 58
521 15
731 58
839 22
1156 100
127 95
996 33
865 32
8 100
1285 50
770 71
964 0
279 61
890 24
1245 87
967 78
978 61
705 62
664 99
1045 79
1006 90
936 38
219 103
6 22
3 85
848 96
42 87
162 45
218 85
1175 35
1078 26
1097 63
1105 24
926 87
895 29
563 37
1120 104
833 90
964 73
947 94
18 53
253 70
1229 26
1238 22
1282 1
958 11
255 96
334 22
372 59
1132 87
72 83
1308 14
492 80
324 87
240 39
1287 95
760 64
412 45
304 29
1286 16
1182 47
373 46
9 62
617 80
1217 46
531 86
962 7
1124 15
1078 59
1220 14
6 40
157 90
1235 23
649 20
869 20
1178 28
1196 46
47 79
388 99
1244 23
36 45
967 29
243 34
1231 20
1234 9
1202 34
194 56
728 77
389 104
1035 72
407 80
1133 20
587 55
484 73
129 21
162 86
911 45
887 59
428 32
649 70
683 91
1059 72
1232 82
736 3
818 90
201 43
786 94
877 104
461 27
402 54
796 82
998 8
616 22
304 13
615 60
504 37
535 59
290 53
704 91
850 41
1113 50
197 77
383 40
1057 16
729 47
939 17
142 38
914 27
393 53
800 46
277 28
1141 102
1254 40
630 36
886 23
872 15
70 39
517 87
246 98
429 99
1048 60
33 9
271 13
357 61
18 70
1277 80
133 53
433 43
1189 7
928 38
755 42
591 32
311 91
494 83
853 42
411 22
847 44
836 65
915 43
998 90
262 71
1100 24
1017 7
1015 0
101 17
121 55
224 48
902 46
714 65
570 77
219 46
554 51
1124 83
356 60
1098 15
757 103
767 17
947 56
212 13
1122 37
79 86
1005 37
594 37
264 94
297 19
672 22
1236 44
481 82
877 77
850 6
576 26
196 0
745 16
311 82
420 37
991 7
204 104
321 59
1024 50
299 60
47 32
269 35
919 37
1140 89
193 55
90 58
928 47
176 73
1001 35
592 73
684 58
488 72
352 82
125 70
711 40
580 51
724 27
686 85
829 22
111 59
1103 60
1121 71
106 74
1243 58
523 17
626 6
385 21
244 37
747 64
1140 7
32 33
1166 38
414 90
1077 43
884 77
613 61
60 89
410 41
852 87
122 47
501 103
671 42
1284 77
597 40
577 64
351 24
367 61
583 103
1106 17
644 11
488 48
68 22
461 26
384 17
1261 22
1063 42
851 14
502 42
1241 0
1109 54
1225 41
627 73
387 72
1279 61
1018 81
797 77
1205 11
845 58
1202 28
573 32
1238 59
615 75
946 102
1002 78
246 7
851 90
379 44
580 13
429 20
507 60
1224 16
503 1
163 3
939 42
584 100
1238 89
232 50
1096 51
1183 83
67 40
410 74
66 90
568 87
595 63
495 13
1158 50
969 71
460 0
539 62
1109 39
634 78
71 51
1098 72
999 80
154 91
1072 94
1160 81
326 39
46 82
425 60
297 79
721 27
929 24
1232 21
473 15
1128 89
893 29
1228 72
224 13
693 33
255 89
0 51
111 20
46 85
68 49
180 14
160 16
25 103
236 39
1069 81
494 94
443 47
186 17
1316 77
585 95
24 56
576 21
1077 49
365 80
461 1
201 8
1002 27
468 47
574 27
221 75
545 32
692 26
1187 47
875 70
1159 81
886 43
1107 90
772 79
664 28
515 38
119 14
421 72
978 44
1311 104
258 60
146 35
83 21
201 63
512 32
842 70
859 59
441 63
996 44
129 49
180 41
493 85
86 73
45 104
1091 23
615 9
771 102
185 47
271 36
934 75
773 28
477 16
1007 17
558 47
373 36
410 29
704 35
907 83
421 74
252 32
794 6
1008 77
1312 38
23 102
169 79
1298 56
34 74
1154 38
1255 15
391 48
664 46
430 45
758 8
93 60
206 72
413 16
620 22
789 36
656 64
802 70
337 26
655 75
37 27
360 62
742 79
390 58
832 1
856 74
31 36
888 37
224 98
212 79
209 103
1187 74
562 22
30 71
1136 91
362 54
309 8
112 82
1178 104
863 21
672 9
641 63
329 21
476 16
554 21
644 77
211 0
1038 72
669 42
563 40
1099 75
355 42
1039 54
1000 34
870 42
1080 38
980 58
1057 24
1292 44
93 99
1187 21
91 54
266 102
980 59
636 95
464 53
1222 71
501 56
185 82
1098 16
768 79
807 22
1203 11
879 9
1088 55
921 48
885 16
525 48
1220 104
979 39
722 75
237 44
688 53
10 21
746 81
1132 85
176 50
722 39
1046 42
438 20
130 24
915 32
792 56
1246 80
577 38
1270 90
349 94
806 47
542 21
882 54
1245 48
78 90
1196 50
485 55
845 89
1155 23
476 35
479 71
1237 9
197 70
766 38
118 60
361 47
1240 3
625 74
427 75
1262 16
416 42
587 23
85 36
548 90
161 102
1276 0
67 61
138 29
23 34
163 90
929 21
1257 99
158 71
786 59
473 51
1006 8
676 36
1094 104
569 95
823 62
1176 26
13 46
337 46
584 21
1263 95
819 62
383 100
851 73
641 16
894 61
1191 86
552 74
495 11
952 23
1157 51
547 1
811 32
1049 13
271 94
1096 83
76 15
73 33
1300 54
465 99
384 99
1044 83
817 91
878 64
820 39
775 15
1268 8
168 48
537 45
391 37
541 60
466 41
1075 46
1000 23
794 23
871 9
358 75
1030 59
57 54
6 80
1059 15
366 62
79 96
107 12
144 9
1022 85
1258 64
1139 51
662 32
1148 87
894 1
1001 43
92 27
530 40
1084 59
935 81
530 74
1188 44
1008 91
96 17
1047 94
1212 99
684 42
317 49
107 72
290 0
1307 26
1240 12
966 43
620 38
918 13
1009 89
370 81
517 55
61 29
738 51
454 41
991 8
920 44
158 26
779 74
1041 78
1115 78
355 64
1028 21
381 40
1014 41
1241 62
69 42
1029 6
847 1
1074 36
748 27
1064 44
891 13
314 46
886 91
243 26
1114 85
1175 42
453 39
290 83
1059 29
132 55
1257 75
759 45
982 48
842 32
493 43
561 29
360 16
1079 62
923 96
1180 80
214 71
504 29
71 63
380 70
1108 103
505 55
53 35
1242 36
58 24
760 53
307 37
930 89
986 11
135 82
211 24
657 46
445 79
318 72
273 48
81 49
898 72
904 24
243 95
128 102
835 40
934 95
922 49
715 53
1068 12
1032 33
397 14
1178 102
795 55
994 61
1227 86
725 21
1157 13
518 99
866 41
769 103
683 12
764 71
783 86
417 26
924 27
1082 83
867 45
737 13
936 53
419 0
1110 48
200 39
317 22
935 87
869 61
311 47
1216 23
755 55
1090 91
510 78
1045 59
1236 37
1051 33
179 91
342 53
590 12
919 100
964 22
636 63
590 32
588 86
173 3
1158 13
273 29
1101 40
125 36
964 77
164 80
211 94
282 45
1085 59
494 50
479 56
75 43
1286 83
1293 65
1260 99
349 62
1220 29
844 9
418 11
1120 15
1219 53
123 95
335 38
652 73
1119 6
1166 43
1239 32
805 11
21 77
475 80
634 34
1136 6
555 12
1158 63
1034 50
1165 50
500 65
664 34
1265 3
13 24
609 75
72 74
718 35
808 39
1065 23
615 95
918 39
36 17
1101 55
710 12
599 85
311 24
470 39
1243 50
360 53
1098 9
1049 51
464 74
749 43
1125 9
880 60
291 95
475 95
544 104
315 62
825 95
933 49
139 35
1232 58
775 22
136 7
655 48
1298 53
396 33
1251 46
191 38
578 45
471 86
476 51
94 41
356 64
1200 39
614 33
504 98
690 32
1058 46
828 54
210 50
105 72
394 65
322 19
705 96
1189 49
684 45
1204 100
892 6
723 42
1171 0
1250 47
592 103
1301 103
1191 29
165 33
761 71
393 42
1297 33
105 43
230 86
1144 20
743 62
944 1
1197 3
874 102
666 96
667 83
883 51
8 75
73 7
159 32
49 23
545 43
284 61
653 71
251 81
293 102
295 34
571 49
239 12
1116 24
169 23
932 43
1178 87
189 96
1128 87
1094 21
330 39
1299 16
715 58
40 13
680 79
86 26
633 71
755 16
100 48
575 13
7 13
474 36
922 74
37 96
357 73
560 11
532 14
1101 70
829 62
191 80
983 75
1217 20
1258 83
530 60
1188 38
793 56
573 100
149 94
623 90
1159 55
429 41
1174 8
867 37
64 16
320 65
1108 20
1125 14
1 39
408 75
987 32
767 23
526 63
242 80
890 62
21 28
435 98
562 79
195 80
276 21
746 42
951 85
961 62
1115 27
72 100
758 13
452 29
1093 49
563 46
730 33
801 28
1083 99
546 63
448 50
155 34
335 48
1144 86
478 104
810 82
238 23
1098 62
838 79
915 96
531 24
72 81
289 41
976 70
1072 6
19 7
985 82
530 64
575 34
258 51
560 54
537 14
113 36
1255 65
659 48
975 24
822 33
293 19
791 75
642 59
786 38
966 55
352 12
1028 58
87 15
312 51
115 75
875 49
302 78
472 46
423 61
234 70
222 36
381 99
90 47
785 35
1235 78
805 43
1214 65
987 91
977 15
420 103
403 33
107 35
1297 99
1162 3
821 104
320 53
537 80
1276 77
190 90
932 35
573 89
136 19
1240 85
1097 81
125 56
402 15
475 27
981 14
55 17
94 65
506 16
270 72
1283 48
478 22
825 35
486 22
946 56
895 35
957 72
430 87
960 22
947 90
485 54
526 45
581 50
190 17
256 51
195 24
350 74
1184 79
58 64
1135 61
799 40
295 77
755 62
1254 86
722 85
956 55
34 6
966 73
1261 27
1110 102
926 23
583 72
286 39
325 21
1210 70
994 23
369 77
1300 1
406 96
171 99
1279 41
1023 56
378 29
521 65
345 28
978 21
243 3
710 91
1299 39
683 44
360 103
1221 58
584 62
738 80
982 61
977 14
511 22
72 9
904 94
647 53
1064 47
17 1
1171 35
